LAMMPS (17 Nov 2016)
OMP_NUM_THREADS environment is not set. Defaulting to 1 thread. (../comm.cpp:90)
  using 1 OpenMP thread(s) per MPI task
## 1. Initialization
units         real ## grams/mole, Angstroms, femtoseconds, Kcal/mole, Kelvin, atmospheres, multiple of electron charge (1.0 for a proton)
dimension     3 ## runs a 3D simulation
processors    * * * grid numa ## LAMMPS chooses the appropriate number of processors
boundary      p p p ## periodic in all dimensions
atom_style    full ## bonds, angles, dihedrals, impropers, charge
bond_style    harmonic
angle_style   harmonic


## 2. Atom definition
read_data	water.dat
  orthogonal box = (0 0 0) to (62.4 62.4 62.4)
  2 by 2 by 7 MPI processor grid
  2 by 2 by 7 core grid within node
  reading atoms ...
  24000 atoms
  scanning bonds ...
  2 = max bonds/atom
  scanning angles ...
  1 = max angles/atom
  reading bonds ...
  16000 bonds
  reading angles ...
  8000 angles
  2 = max # of 1-2 neighbors
  1 = max # of 1-3 neighbors
  1 = max # of 1-4 neighbors
  2 = max # of special neighbors

## 3. Settings
pair_style lj/cut/tip4p/long 1 2 1 1 0.1546 8.5
pair_modify tail yes
pair_coeff 2 2 0.0 0.0
pair_coeff 1 2 0.0 0.0
pair_coeff 1 1 0.18520 3.1589
bond_style harmonic
bond_coeff 1 1000.0 0.9572
angle_style harmonic
angle_coeff 1 75.0 104.52
kspace_style pppm/tip4p 1.0e-5

neighbor 2.0 bin
neigh_modify every 1 delay 0 check yes

thermo      50
thermo_style custom step temp press vol density etotal pe ke lx ly lz
thermo_modify norm no flush yes
dump	H2Oxyz all xyz 1000 H2O.xyz
dump  finalpos all custom 15000 finalpos.dump id mol type q xs ys zs vx vy vz
dump_modify finalpos sort id pbc yes
restart 100000 restart.res

compute myRDF all rdf 500 1 1 1 2 2 2
fix 3 all ave/time 2 100 500 c_myRDF[*] file H2O.rdf mode vector

compute myMSD all msd
fix 5 all ave/time 100 1 100 c_myMSD[*] file H2O.msd mode vector

minimize 0 1.0e-6 1000 100000
PPPM initialization ...
  extracting TIP4P info from pair style
WARNING: Using 12-bit tables for long-range coulomb (../kspace.cpp:317)
  G vector (1/distance) = 0.369088
  grid = 72 72 72
  stencil order = 5
  estimated absolute RMS force accuracy = 0.00333128
  estimated relative force accuracy = 1.00321e-05
  using double precision FFTs
  3d grid and FFT values/proc = 33282 15552
Neighbor list info ...
  2 neighbor list requests
  update every 1 steps, delay 0 steps, check yes
  max neighbors/atom: 2000, page size: 100000
  master list distance cutoff = 10.8092
  ghost atom cutoff = 10.8092
  binsize = 5.4046 -> bins = 12 12 12
Memory usage per processor = 13.8292 Mbytes
Step Temp Press Volume Density TotEng PotEng KinEng Lx Ly Lz 
       0            0     278761.8    242970.62   0.98498402    348721.38    348721.38            0         62.4         62.4         62.4 
      50            0   -14219.406    242970.62   0.98498402   -72942.551   -72942.551            0         62.4         62.4         62.4 
     100            0   -12047.206    242970.62   0.98498402   -76911.223   -76911.223            0         62.4         62.4         62.4 
     150            0   -12301.084    242970.62   0.98498402   -87596.573   -87596.573            0         62.4         62.4         62.4 
     200            0   -9244.1937    242970.62   0.98498402   -94416.535   -94416.535            0         62.4         62.4         62.4 
     250            0   -7015.0314    242970.62   0.98498402   -98875.631   -98875.631            0         62.4         62.4         62.4 
     300            0   -6164.4848    242970.62   0.98498402   -101638.67   -101638.67            0         62.4         62.4         62.4 
     350            0   -4091.5998    242970.62   0.98498402   -103639.18   -103639.18            0         62.4         62.4         62.4 
     400            0    -4774.397    242970.62   0.98498402   -105015.71   -105015.71            0         62.4         62.4         62.4 
     450            0   -4464.9494    242970.62   0.98498402   -106167.41   -106167.41            0         62.4         62.4         62.4 
     500            0   -4109.7969    242970.62   0.98498402   -107163.83   -107163.83            0         62.4         62.4         62.4 
     550            0   -4213.8493    242970.62   0.98498402   -107902.82   -107902.82            0         62.4         62.4         62.4 
     600            0   -4055.0828    242970.62   0.98498402   -108409.29   -108409.29            0         62.4         62.4         62.4 
     650            0   -3894.5734    242970.62   0.98498402    -108766.8    -108766.8            0         62.4         62.4         62.4 
     700            0   -3631.2859    242970.62   0.98498402   -109124.65   -109124.65            0         62.4         62.4         62.4 
     750            0   -3898.7415    242970.62   0.98498402   -109361.41   -109361.41            0         62.4         62.4         62.4 
     800            0   -3753.2278    242970.62   0.98498402   -109581.98   -109581.98            0         62.4         62.4         62.4 
     850            0   -3669.5896    242970.62   0.98498402   -109784.08   -109784.08            0         62.4         62.4         62.4 
     900            0   -3753.2752    242970.62   0.98498402   -109963.79   -109963.79            0         62.4         62.4         62.4 
     950            0   -3605.7362    242970.62   0.98498402   -110086.28   -110086.28            0         62.4         62.4         62.4 
    1000            0   -3658.0449    242970.62   0.98498402   -110232.97   -110232.97            0         62.4         62.4         62.4 
Loop time of 28.0199 on 28 procs for 1000 steps with 24000 atoms

99.9% CPU use with 28 MPI tasks x no OpenMP threads

Minimization stats:
  Stopping criterion = max iterations
  Energy initial, next-to-last, final = 
         348721.384856     -110230.656859     -110232.966906
  Force two-norm initial, final = 13409 85.1476
  Force max component initial, final = 106.58 10.4559
  Final line search alpha, max atom move = 0.00955674 0.0999247
  Iterations, force evaluations = 1000 1921

MPI task timing breakdown:
Section |  min time  |  avg time  |  max time  |%varavg| %total
---------------------------------------------------------------
Pair    | 11.693     | 12.737     | 14.049     |  14.2 | 45.46
Bond    | 0.05344    | 0.057912   | 0.062264   |   0.9 |  0.21
Kspace  | 12.779     | 14.097     | 15.143     |  13.5 | 50.31
Neigh   | 0.17716    | 0.17734    | 0.17751    |   0.0 |  0.63
Comm    | 0.73973    | 0.75078    | 0.75896    |   0.7 |  2.68
Output  | 0.0037333  | 0.0037721  | 0.0045547  |   0.2 |  0.01
Modify  | 0          | 0          | 0          |   0.0 |  0.00
Other   |            | 0.1957     |            |       |  0.70

Nlocal:    857.143 ave 894 max 820 min
Histogram: 1 0 3 2 6 8 5 1 1 1
Nghost:    7393.36 ave 7438 max 7320 min
Histogram: 1 1 0 4 2 3 5 7 1 4
Neighs:    223548 ave 239187 max 207053 min
Histogram: 1 5 0 2 5 4 3 5 1 2

Total # of neighbors = 6259338
Ave neighs/atom = 260.806
Ave special neighs/atom = 2
Neighbor list builds = 28
Dangerous builds = 0

velocity all create 10.0 12345678

fix 1 all shake 0.0001 20 10000 b 1 a 1
  0 = # of size 2 clusters
  0 = # of size 3 clusters
  0 = # of size 4 clusters
  8000 = # of frozen angles
fix 2 all npt temp 300.0 300.0 100.0 iso 1.0 1.0 1000.0
fix 4 all momentum 1 linear 1 1 1

## 4. Run
timestep 1.0
run 5000
PPPM initialization ...
  extracting TIP4P info from pair style
WARNING: Using 12-bit tables for long-range coulomb (../kspace.cpp:317)
  G vector (1/distance) = 0.369088
  grid = 72 72 72
  stencil order = 5
  estimated absolute RMS force accuracy = 0.00333128
  estimated relative force accuracy = 1.00321e-05
  using double precision FFTs
  3d grid and FFT values/proc = 33282 15552
SHAKE stats (type/ave/delta) on step 1000
  1 0.969638 0.0200485
  1 102.706 7.47856
Memory usage per processor = 13.5792 Mbytes
Step Temp Press Volume Density TotEng PotEng KinEng Lx Ly Lz 
    1000    15.000313   -3174.0179    242970.62   0.98498402   -112894.45   -113609.82     715.3646         62.4         62.4         62.4 
    1050    6.5468533   -1924.7267    242676.49   0.98617787   -106397.69   -106709.91     312.2193     62.37481     62.37481     62.37481 
    1100    7.3796354   -2157.6325    241586.71   0.99062645   -106386.13   -106738.06    351.93467    62.281301    62.281301    62.281301 
    1150    8.9946777   -1792.4152    239887.71   0.99764255   -106382.91   -106811.87      428.956    62.134956    62.134956    62.134956 
    1200    11.021465    -1546.585    238301.11    1.0042848   -106359.69   -106885.31    525.61344    61.997668    61.997668    61.997668 
    1250    13.020317   -1317.9522    236989.95    1.0098411   -106305.71   -106926.65    620.93866    61.883753    61.883753    61.883753 
    1300    15.074965   -1028.9606    235782.05    1.0150144   -106226.55   -106945.47    718.92478    61.778437    61.778437    61.778437 
    1350    17.239889   -716.37727    234670.39    1.0198227    -106122.7   -106944.87    822.16995    61.681193    61.681193    61.681193 
    1400     19.95672   -543.94754    233726.69    1.0239403   -105992.11   -106943.85    951.73557    61.598401    61.598401    61.598401 
    1450    22.588365   -458.47026     232954.7    1.0273336    -105833.7   -106910.94    1077.2387    61.530507    61.530507    61.530507 
    1500    25.784205   -426.80842    232311.51    1.0301779   -105646.84   -106876.49    1229.6482    61.473826    61.473826    61.473826 
    1550    28.992506   -351.38276    231751.88    1.0326656   -105430.83   -106813.48    1382.6521    61.424423    61.424423    61.424423 
    1600    32.344805   -133.65251    231269.17    1.0348209   -105182.82   -106725.34    1542.5231    61.381747    61.381747    61.381747 
    1650    36.368439   -67.002272     230890.8    1.0365168   -104899.68   -106634.09    1734.4101    61.348254    61.348254    61.348254 
    1700    40.295687     56.59311     230609.3     1.037782   -104580.61   -106502.31    1921.7005    61.323312    61.323312    61.323312 
    1750    44.800102    56.906238    230423.01     1.038621   -104223.56   -106360.08    2136.5159    61.306796    61.306796    61.306796 
    1800    49.684343    151.03219    230309.17    1.0391344   -103824.12   -106193.56    2369.4453    61.296697    61.296697    61.296697 
    1850    55.268392    176.08138    230277.79     1.039276   -103380.07   -106015.82    2635.7485    61.293913    61.293913    61.293913 
    1900     61.16164    24.582705    230308.75    1.0391363   -102882.69   -105799.49    2916.7974     61.29666     61.29666     61.29666 
    1950    66.902729   -15.452336    230344.49    1.0389751   -102334.27   -105524.86    3190.5898    61.299831    61.299831    61.299831 
    2000    73.562363   0.40717076    230367.83    1.0388698   -101733.13   -105241.32    3508.1876    61.301901    61.301901    61.301901 
    2050     80.88994    176.14568     230398.8    1.0387302   -101075.79   -104933.43    3857.6396    61.304648    61.304648    61.304648 
    2100    89.135048    242.86992    230487.65    1.0383298      -100353   -104603.85    4250.8487    61.312527    61.312527    61.312527 
    2150    99.068938    346.20367    230654.83    1.0375772   -99559.528   -104284.12    4724.5957    61.327348    61.327348    61.327348 
    2200    107.77916    409.52396     230925.7    1.0363601   -98695.791   -103835.78    5139.9858    61.351345    61.351345    61.351345 
    2250    117.60459    434.75109    231292.69    1.0347157   -97759.855   -103368.42    5608.5605    61.383828    61.383828    61.383828 
    2300    126.94006    468.63756    231746.41    1.0326899   -96759.624   -102813.39    6053.7691     61.42394     61.42394     61.42394 
    2350    138.12086    362.25525    232264.73    1.0303854    -95687.79   -102274.77    6586.9809    61.469699    61.469699    61.469699 
    2400     150.4034    255.38834    232792.16    1.0280509   -94542.969    -101715.7    7172.7353    61.516193    61.516193    61.516193 
    2450    162.63245    211.95428     233282.6    1.0258896   -93330.219   -101086.16    7755.9385    61.559363    61.559363    61.559363 
    2500    173.39458    382.42756    233732.52    1.0239148   -92057.246   -100326.43    8269.1841    61.598912    61.598912    61.598912 
    2550    184.24547    435.04382    234185.47    1.0219344   -90736.912   -99523.575    8786.6627    61.638678    61.638678    61.638678 
    2600     198.6453    559.87079    234666.25    1.0198406   -89369.123   -98842.513    9473.3903    61.680831    61.680831    61.680831 
    2650    211.26992    618.02402    235216.23    1.0174561   -87962.708   -98038.166    10075.458    61.728979    61.728979    61.728979 
    2700    224.93676    488.96956    235819.71    1.0148523   -86528.421   -97255.651     10727.23    61.781726    61.781726    61.781726 
    2750    238.54868    299.61416    236415.58    1.0122945   -85087.973   -96464.355    11376.382    61.833719    61.833719    61.833719 
    2800    250.35279     486.4359    236954.39    1.0099926   -83653.109   -95592.428     11939.32    61.880658    61.880658    61.880658 
    2850    260.63647    599.76794    237505.65    1.0076484   -82254.843   -94684.591    12429.748    61.928607    61.928607    61.928607 
    2900    271.22586    607.54293    238105.29    1.0051107   -80903.786   -93838.542    12934.756    61.980682    61.980682    61.980682 
    2950    280.50894    639.12551    238733.12    1.0024674    -79624.96   -93002.426    13377.466    62.035111    62.035111    62.035111 
    3000    289.46406    497.84709    239378.61   0.99976427   -78447.022   -92251.557    13804.535    62.090971    62.090971    62.090971 
    3050    293.67899    635.77656    240003.25   0.99716225   -77391.118   -91396.663    14005.545    62.144931    62.144931    62.144931 
    3100    303.41147     662.1917    240626.82   0.99457816   -76470.141   -90939.828    14469.687    62.198706    62.198706    62.198706 
    3150    310.22091     589.4976    241250.91    0.9920053   -75786.346   -90580.775    14794.429    62.252432    62.252432    62.252432 
    3200    309.76584    396.11599    241867.97    0.9894745   -75385.448   -90158.175    14772.727    62.305461    62.305461    62.305461 
    3250    306.91056     160.5894    242412.75   0.98725079   -75232.739   -89869.298    14636.559    62.352206    62.352206    62.352206 
    3300    306.03222   -190.47108    242823.39   0.98558126   -75270.314   -89864.985     14594.67    62.387393    62.387393    62.387393 
    3350    304.57319   -377.81262     243054.8   0.98464289   -75455.926   -89981.015    14525.089    62.407206    62.407206    62.407206 
    3400    299.33447   -396.52689    243086.99   0.98451252   -75724.687   -89999.942    14275.255     62.40996     62.40996     62.40996 
    3450    294.78817   -124.46099    242944.92   0.98508823   -76007.482   -90065.924    14058.442      62.3978      62.3978      62.3978 
    3500    297.91294   -366.96231    242741.85   0.98591233   -76224.951   -90432.413    14207.462    62.380409    62.380409    62.380409 
    3550    297.18398   -211.47746    242480.13   0.98697648   -76340.998   -90513.696    14172.698    62.357982    62.357982    62.357982 
    3600    292.91756   -22.206009    242224.43   0.98801837   -76327.152   -90296.384    13969.232    62.336055    62.336055    62.336055 
    3650    297.49197   -97.499043    242002.81   0.98892316   -76184.313   -90371.699    14187.386    62.317038    62.317038    62.317038 
    3700    301.24249   -62.328709    241797.58   0.98976251   -75974.487   -90340.736    14366.248    62.299417    62.299417    62.299417 
    3750    300.02358    102.88459    241619.42   0.99049234    -75767.24   -90075.358    14308.119    62.284112    62.284112    62.284112 
    3800    303.53296   -100.13946    241490.29   0.99102197   -75610.572   -90086.052    14475.481    62.273015    62.273015    62.273015 
    3850    304.63279   -84.873274    241358.28     0.991564   -75552.068       -90080    14527.932    62.261666    62.261666    62.261666 
    3900    303.39247    68.370473    241225.21   0.99211098   -75613.597   -90082.378    14468.781    62.250221    62.250221    62.250221 
    3950    300.38703   -19.113843    241120.23   0.99254295   -75769.928    -90095.38    14325.452    62.241189    62.241189    62.241189 
    4000    298.93763   -116.20743    241003.58   0.99302334    -75960.48   -90216.809    14256.329    62.231151    62.231151    62.231151 
    4050    299.20366   -161.17646    240853.42   0.99364244   -76124.194   -90393.211    14269.017    62.218224    62.218224    62.218224 
    4100    298.66149   -96.692002    240694.15   0.99429998   -76258.145   -90501.306    14243.161    62.204506    62.204506    62.204506 
    4150    297.19391   -132.75798    240537.45    0.9949477   -76359.842   -90533.013    14173.172    62.191004    62.191004    62.191004 
    4200    297.44445   -78.424201    240372.24   0.99563152   -76404.297   -90589.417     14185.12    62.176763    62.176763    62.176763 
    4250    298.90645     74.85547    240217.98   0.99627091   -76402.362   -90657.204    14254.842    62.163458    62.163458    62.163458 
    4300    298.25687    217.75403     240138.4   0.99660107   -76341.474   -90565.339    14223.864    62.156593    62.156593    62.156593 
    4350    300.35431    291.73045    240156.68   0.99652522   -76253.276   -90577.167    14323.891     62.15817     62.15817     62.15817 
    4400    301.18596    87.996062    240260.12   0.99609616   -76184.204   -90547.757    14363.552    62.167094    62.167094    62.167094 
    4450    297.26409   -169.43041    240367.26   0.99565218   -76144.598   -90321.117    14176.518    62.176333    62.176333    62.176333 
    4500    303.00294   -377.90463    240364.44   0.99566386   -76109.188   -90559.392    14450.204    62.176089    62.176089    62.176089 
    4550    299.98917   -30.866333    240239.78   0.99618051   -76088.061   -90394.538    14306.477    62.165339    62.165339    62.165339 
    4600    301.12527    154.95941    240111.89   0.99671108   -76063.907   -90424.565    14360.658    62.154306    62.154306    62.154306 
    4650    303.31165   -42.027669    240025.33   0.99707055    -76075.43   -90540.357    14464.927    62.146836    62.146836    62.146836 
    4700    302.28075     234.1697    239960.67    0.9973392   -76140.321   -90556.084    14415.763    62.141255    62.141255    62.141255 
    4750    300.28385     234.2491    239987.28    0.9972286   -76272.337   -90592.868    14320.531    62.143552    62.143552    62.143552 
    4800    299.13039     84.52937    240089.86   0.99680253   -76433.244   -90698.766    14265.522    62.152406    62.152406    62.152406 
    4850    297.59512   -24.246586    240206.42   0.99631883   -76571.527   -90763.832    14192.305    62.162462    62.162462    62.162462 
    4900    300.97006   -97.564976    240292.55   0.99596174   -76677.947   -91031.204    14353.256     62.16989     62.16989     62.16989 
    4950    294.78957    22.924568    240352.74   0.99571231   -76744.613   -90803.121    14058.508    62.175081    62.175081    62.175081 
    5000    294.25549   -24.948464     240395.2   0.99553645    -76729.49   -90762.529    14033.039    62.178742    62.178742    62.178742 
    5050      297.729   -149.80266    240401.82   0.99550902   -76633.565   -90832.255     14198.69    62.179313    62.179313    62.179313 
    5100    299.80724   -159.62258    240346.25   0.99573922   -76494.204   -90792.005    14297.801    62.174521    62.174521    62.174521 
    5150    299.23215    137.33218    240240.21   0.99617873   -76349.387   -90619.762    14270.375    62.165376    62.165376    62.165376 
    5200    302.97864    184.37691    240170.79   0.99646665   -76227.151   -90676.196    14449.045    62.159388    62.159388    62.159388 
    5250    305.75761    3.9426073    240165.41   0.99648896    -76172.05   -90753.625    14581.575    62.158924    62.158924    62.158924 
    5300    299.75367    198.43434    240197.26   0.99635685   -76204.998   -90500.245    14295.246    62.161671    62.161671    62.161671 
    5350    301.13125    112.76783    240291.46   0.99596626   -76266.742   -90627.685    14360.943    62.169796    62.169796    62.169796 
    5400    300.06806    26.994393    240418.85   0.99543851   -76349.611    -90659.85     14310.24    62.180781    62.180781    62.180781 
    5450    299.13391   -246.00587    240522.97    0.9950076   -76426.599   -90692.289     14265.69    62.189756    62.189756    62.189756 
    5500    299.72835   -331.35926    240536.74   0.99495062   -76478.359   -90772.398    14294.039    62.190943    62.190943    62.190943 
    5550    300.16207    -37.45455    240461.31   0.99526275    -76503.59   -90818.312    14314.723    62.184441    62.184441    62.184441 
    5600    298.58617    116.92414    240365.51   0.99565943   -76522.873   -90762.442    14239.569    62.176182    62.176182    62.176182 
    5650    299.64998    122.09081    240325.73   0.99582421   -76524.582   -90814.883    14290.301    62.172752    62.172752    62.172752 
    5700    298.68496    60.481656    240337.65   0.99577482   -76538.338   -90782.618     14244.28     62.17378     62.17378     62.17378 
    5750    302.58145    44.467333    240360.66   0.99567951   -76579.973   -91010.076    14430.103    62.175764    62.175764    62.175764 
    5800    299.63866    14.407446    240417.75   0.99544309   -76643.712   -90933.474    14289.762    62.180686    62.180686    62.180686 
    5850    297.92991   -164.59613     240474.8   0.99520691   -76695.612   -90903.884    14208.271    62.185604    62.185604    62.185604 
    5900    298.16236   -170.46974    240473.65   0.99521166   -76684.158   -90903.515    14219.357    62.185505    62.185505    62.185505 
    5950    299.69576   -194.71304    240410.18   0.99547441   -76605.866   -90898.351    14292.485    62.180034    62.180034    62.180034 
    6000    298.93084   -6.6227645    240282.01   0.99600543   -76513.616   -90769.622    14256.006    62.168981    62.168981    62.168981 
Loop time of 110.575 on 28 procs for 5000 steps with 24000 atoms

Performance: 3.907 ns/day, 6.143 hours/ns, 45.218 timesteps/s
100.0% CPU use with 28 MPI tasks x no OpenMP threads

MPI task timing breakdown:
Section |  min time  |  avg time  |  max time  |%varavg| %total
---------------------------------------------------------------
Pair    | 45.317     | 50.826     | 55.108     |  32.9 | 45.96
Bond    | 0.0038831  | 0.0047072  | 0.0064702  |   1.0 |  0.00
Kspace  | 35.347     | 39.623     | 45.125     |  37.3 | 35.83
Neigh   | 1.3649     | 1.3667     | 1.3679     |   0.1 |  1.24
Comm    | 1.8932     | 1.9313     | 1.9544     |   1.2 |  1.75
Output  | 0.015819   | 0.015996   | 0.019295   |   0.5 |  0.01
Modify  | 12.644     | 14.893     | 16.519     |  40.2 | 13.47
Other   |            | 1.915      |            |       |  1.73

Nlocal:    857.143 ave 895 max 824 min
Histogram: 1 2 2 11 1 4 3 1 0 3
Nghost:    7600.32 ave 7686 max 7523 min
Histogram: 3 0 5 4 3 3 3 5 1 1
Neighs:    226094 ave 242237 max 207997 min
Histogram: 4 0 2 4 2 3 4 2 5 2

Total # of neighbors = 6330643
Ave neighs/atom = 263.777
Ave special neighs/atom = 2
Neighbor list builds = 218
Dangerous builds = 0

fix 6 all efield 0.0 0.0 0.225

timestep 1.0
run 10000
PPPM initialization ...
  extracting TIP4P info from pair style
WARNING: Using 12-bit tables for long-range coulomb (../kspace.cpp:317)
  G vector (1/distance) = 0.369398
  grid = 72 72 72
  stencil order = 5
  estimated absolute RMS force accuracy = 0.00329482
  estimated relative force accuracy = 9.92225e-06
  using double precision FFTs
  3d grid and FFT values/proc = 33282 15552
SHAKE stats (type/ave/delta) on step 6000
  1 0.957197 2.09501e-06
  1 104.52 0.0001407
Memory usage per processor = 13.5792 Mbytes
Step Temp Press Volume Density TotEng PotEng KinEng Lx Ly Lz 
    6000    298.93084   -31.461491    240282.01   0.99600543   -76513.612   -90769.617    14256.006    62.168981    62.168981    62.168981 
    6050     322.4646   -550.57346    239906.74    0.9975634   -74046.274   -89424.604     15378.33      62.1366      62.1366      62.1366 
    6100    328.74902   -345.48344     239336.9   0.99993852   -73579.123   -89257.158    15678.034    62.087364    62.087364    62.087364 
    6150    320.39773   -634.52271    238709.77    1.0025655   -73834.093   -89113.855    15279.761    62.033087    62.033087    62.033087 
    6200    312.18696    -661.8361    237982.76    1.0056282   -74247.358   -89135.548     14888.19    61.970048    61.970048    61.970048 
    6250    307.72127   -777.58696    237175.85    1.0090495   -74751.303   -89426.525    14675.221     61.89993     61.89993     61.89993 
    6300    302.72862    -619.0216    236337.47     1.012629   -75278.995   -89716.117    14437.122    61.826908    61.826908    61.826908 
    6350    297.54333   -861.44562    235542.49    1.0160467   -75655.871   -89845.706    14189.835    61.757507    61.757507    61.757507 
    6400    297.37437   -932.41621    234736.02    1.0195375    -75924.93   -90106.708    14181.778    61.686942    61.686942    61.686942 
    6450    297.64864    -851.0255    233935.74    1.0230253   -76084.567   -90279.425    14194.858     61.61676     61.61676     61.61676 
    6500    295.95597   -827.17271    233165.15    1.0264063   -76291.808   -90405.943    14114.134     61.54903     61.54903     61.54903 
    6550    296.60115   -749.51029       232423    1.0296837   -76389.698   -90534.601    14144.903    61.483658    61.483658    61.483658 
    6600      296.812   -592.51547    231736.68    1.0327333   -76357.224   -90512.183    14154.958    61.423081    61.423081    61.423081 
    6650    299.83649   -764.70969    231098.35    1.0355859   -76377.419   -90676.615    14299.196    61.366631    61.366631    61.366631 
    6700    300.07527   -509.24763    230468.94    1.0384141   -76318.399   -90628.983    14310.584    61.310868    61.310868    61.310868 
    6750    302.60279   -554.35529    229897.03    1.0409973   -76315.093   -90746.214    14431.121    61.260112    61.260112    61.260112 
    6800      300.707   -445.50108    229362.46    1.0434235   -76355.414   -90696.124    14340.711    61.212593    61.212593    61.212593 
    6850    301.54816   -424.11043    228853.59    1.0457436   -76425.035   -90805.861    14380.826    61.167291    61.167291    61.167291 
    6900    300.04824   -254.26252    228372.33    1.0479474   -76561.592   -90870.887    14309.295    61.124384    61.124384    61.124384 
    6950    302.01587   -536.08773    227944.87    1.0499126   -76676.694   -91079.824    14403.131    61.086223    61.086223    61.086223 
    7000    300.50374   -595.55507    227502.16    1.0519556   -76824.527   -91155.544    14331.018    61.046651    61.046651    61.046651 
    7050     299.0095    -498.5432    227032.19    1.0541332   -76910.166   -91169.924    14259.757    61.004586    61.004586    61.004586 
    7100    297.65712   -420.89521    226549.46    1.0563794   -77049.123   -91244.385    14195.262    60.961317    60.961317    60.961317 
    7150    299.30736   -429.19592    226063.36    1.0586509    -77078.38   -91352.342    14273.962    60.917685    60.917685    60.917685 
    7200    301.31563   -407.40966    225585.97    1.0608913   -77064.548   -91434.284    14369.736    60.874774    60.874774    60.874774 
    7250     301.4849   -171.93166    225144.26    1.0629726   -77197.847   -91575.656    14377.809    60.835016    60.835016    60.835016 
    7300    302.76899   -256.44203    224783.52    1.0646785   -77355.873    -91794.92    14439.047    60.802508    60.802508    60.802508 
    7350    298.55559   -275.43235    224453.77    1.0662427   -77488.483   -91726.592     14238.11    60.772761    60.772761    60.772761 
    7400    297.24224   -240.10359    224129.09    1.0677873   -77585.766   -91761.242    14175.476    60.743443    60.743443    60.743443 
    7450    297.85984   -328.54179    223792.42    1.0693936   -77656.938   -91861.867     14204.93    60.713013    60.713013    60.713013 
    7500    296.83405   -165.06669     223432.5    1.0711162   -77684.214   -91840.223     14156.01    60.680449    60.680449    60.680449 
    7550    297.01862    86.435604    223094.03    1.0727413   -77710.628    -91875.44    14164.812    60.649792    60.649792    60.649792 
    7600    302.55417   -93.057415    222840.88      1.07396   -77686.129   -92114.931    14428.802    60.626843    60.626843    60.626843 
    7650    299.47743   -58.614023    222660.85    1.0748283   -77687.971   -91970.043    14282.073    60.610512    60.610512    60.610512 
    7700    302.87008    125.59804    222534.74    1.0754374   -77665.307   -92109.175    14443.868    60.599067    60.599067    60.599067 
    7750    300.89218    192.79737    222499.41    1.0756081   -77693.086   -92042.628    14349.542    60.595861    60.595861    60.595861 
    7800    299.42095    -162.8263    222517.58    1.0755203   -77826.919   -92106.298    14279.379     60.59751     60.59751     60.59751 
    7850    299.66601   -394.26006    222463.84    1.0757802   -77942.458   -92233.524    14291.066     60.59263     60.59263     60.59263 
    7900    296.90786   -238.68278    222302.89    1.0765591   -78071.828   -92231.358     14159.53    60.578014    60.578014    60.578014 
    7950    296.52085    -360.4556    222072.48     1.077676   -78134.744   -92275.818    14141.073    60.557078    60.557078    60.557078 
    8000    301.61391   -166.36831    221779.24    1.0791009   -78071.187   -92455.149    14383.961    60.530412    60.530412    60.530412 
    8050    300.03386    99.820985    221507.28    1.0804258   -78122.713   -92431.322    14308.609     60.50566     60.50566     60.50566 
    8100    299.13809    120.13808    221307.89    1.0813992   -78158.081    -92423.97     14265.89      60.4875      60.4875      60.4875 
    8150    300.21733   -180.86055    221151.25    1.0821652   -78179.687   -92497.045    14317.359    60.473225    60.473225    60.473225 
    8200     297.6504   -89.444386    220976.22    1.0830224    -78196.45   -92391.392    14194.942    60.457267    60.457267    60.457267 
    8250    297.81612    12.531432    220797.41    1.0838994   -78159.315    -92362.16    14202.845    60.440956    60.440956    60.440956 
    8300    300.99677    90.485265    220643.04    1.0846578   -78065.234   -92419.764     14354.53    60.426867    60.426867    60.426867 
    8350    303.47859   -194.01592    220531.94    1.0852042   -78058.292    -92531.18    14472.888    60.416723    60.416723    60.416723 
    8400     299.5706    149.66082    220414.19    1.0857839   -78062.437   -92348.953    14286.516    60.405968    60.405968    60.405968 
    8450    299.60395    125.48662    220318.74    1.0862543   -78126.822   -92414.929    14288.106    60.397248    60.397248    60.397248 
    8500      299.142    35.827012    220250.38    1.0865914   -78135.992   -92402.068    14266.076       60.391       60.391       60.391 
    8550    297.67086  -0.23053453     220196.5    1.0868573   -78170.351   -92366.268    14195.918    60.386076    60.386076    60.386076 
    8600    300.46534   -37.397743    220127.21    1.0871995   -78267.621   -92596.807    14329.186    60.379741    60.379741    60.379741 
    8650    300.88519    137.57282    220048.95    1.0875861   -78278.253   -92627.461    14349.208    60.372584    60.372584    60.372584 
    8700    300.26641    154.54958    220018.38    1.0877373   -78351.976   -92671.675    14319.699    60.369788    60.369788    60.369788 
    8750    299.10875    110.00969    220047.88    1.0875914   -78458.305   -92722.795     14264.49    60.372486    60.372486    60.372486 
    8800     299.8967   -1.8899235    220109.82    1.0872854   -78512.925   -92814.992    14302.068    60.378151    60.378151    60.378151 
    8850    299.12547    35.857526    220168.45    1.0869958   -78519.984   -92785.272    14265.288    60.383511    60.383511    60.383511 
    8900    298.93313    22.359498    220222.27    1.0867302   -78555.679   -92811.795    14256.115    60.388431    60.388431    60.388431 
    8950    299.95652   -148.66716    220272.61    1.0864818   -78544.748   -92849.668    14304.921    60.393032    60.393032    60.393032 
    9000    299.37416   -167.62497    220270.94    1.0864901   -78491.449   -92768.597    14277.148    60.392879    60.392879    60.392879 
    9050     302.5423    13.100815    220214.91    1.0867665   -78424.212   -92852.449    14428.236    60.387758    60.387758    60.387758 
    9100    301.55774   -259.29715    220148.95    1.0870921    -78405.15   -92786.433    14381.283    60.381728    60.381728    60.381728 
    9150    299.93178   -23.181229    220009.98    1.0877787   -78412.768   -92716.509    14303.741    60.369021    60.369021    60.369021 
    9200    300.52402    135.79242    219857.32     1.088534   -78448.107   -92780.091    14331.985    60.355054    60.355054    60.355054 
    9250    300.52374    195.47923    219758.78    1.0890222   -78471.766   -92803.737    14331.971    60.346035    60.346035    60.346035 
    9300     300.5484    221.17457    219733.29    1.0891485   -78534.798   -92867.945    14333.147    60.343702    60.343702    60.343702 
    9350    300.77483    35.913354    219774.08    1.0889463   -78574.724   -92918.669    14343.945    60.347436    60.347436    60.347436 
    9400    296.97492   -174.06144    219830.85    1.0886651   -78642.836   -92805.564    14162.728    60.352632    60.352632    60.352632 
    9450    297.31332   -81.721859    219830.74    1.0886657    -78707.15   -92886.016    14178.866    60.352621    60.352621    60.352621 
    9500    298.73947   -66.172662    219780.31    1.0889155   -78680.242   -92927.122    14246.879    60.348006    60.348006    60.348006 
    9550    301.81543    67.066398    219702.12     1.089303   -78615.403   -93008.975    14393.572    60.340849    60.340849    60.340849 
    9600    303.04642    71.651113    219643.43    1.0895941   -78614.042    -93066.32    14452.277    60.335476    60.335476    60.335476 
    9650    301.54757   -137.89859    219596.81    1.0898254   -78675.581   -93056.379    14380.797    60.331206    60.331206    60.331206 
    9700    301.75546    84.600843    219526.27    1.0901756   -78751.041   -93141.753    14390.712    60.324746    60.324746    60.324746 
    9750    298.57736    183.78588    219470.75    1.0904514   -78840.136   -93079.284    14239.148     60.31966     60.31966     60.31966 
    9800    297.88243   -25.471268    219458.66    1.0905115    -78882.26   -93088.267    14206.007    60.318552    60.318552    60.318552 
    9850    299.77566   -8.5065852    219437.67    1.0906158   -78845.287   -93141.582    14296.295    60.316629    60.316629    60.316629 
    9900    300.10461   -156.84371    219401.33    1.0907964   -78913.172   -93225.154    14311.983    60.313299    60.313299    60.313299 
    9950    298.85022   -147.06338    219324.71    1.0911775   -78912.153   -93164.314    14252.161    60.306277    60.306277    60.306277 
SHAKE stats (type/ave/delta) on step 10000
  1 0.957942 0.00220121
  1 104.405 0.117814
   10000    298.88098    6.1678191    219197.88    1.0918088   -78858.067   -93111.695    14253.628    60.294651    60.294651    60.294651 
   10050    301.11616     140.6971    219075.83    1.0924171   -78818.697    -93178.92    14360.223    60.283457    60.283457    60.283457 
   10100    302.71983    267.82646    219015.37    1.0927186   -78776.184   -93212.886    14436.703    60.277912    60.277912    60.277912 
   10150    301.04037    218.35117    219053.75    1.0925272   -78861.272   -93217.881    14356.609    60.281432    60.281432    60.281432 
   10200    300.35632     141.2832     219156.1     1.092017   -78920.149   -93244.136    14323.987     60.29082     60.29082     60.29082 
   10250    299.10473    76.979936    219294.61    1.0913272   -79006.599   -93270.897    14264.298    60.303519    60.303519    60.303519 
   10300    300.02397    30.329687    219448.65    1.0905612   -79014.597   -93322.734    14308.137    60.317635    60.317635    60.317635 
   10350    299.75237   -271.53088    219603.82    1.0897906   -79061.331   -93356.515    14295.184    60.331848    60.331848    60.331848 
   10400    296.99436   -182.65983    219692.74    1.0893495   -79019.291   -93182.947    14163.655     60.33999     60.33999     60.33999 
   10450    299.33966   -411.05176     219688.4     1.089371   -78889.768   -93165.271    14275.502    60.339593    60.339593    60.339593 
   10500    299.92382   -240.13415    219568.78    1.0899645   -78819.463   -93122.824    14303.361    60.328639    60.328639    60.328639 
   10550      303.825   -211.84312    219377.96    1.0909126   -78684.421   -93173.829    14489.408    60.311158    60.311158    60.311158 
   10600    302.76527    57.455836       219153    1.0920324   -78642.261   -93081.131     14438.87    60.290536    60.290536    60.290536 
   10650    301.96822    107.73223    218956.89    1.0930105   -78690.281   -93091.139    14400.858    60.272546    60.272546    60.272546 
   10700    299.77479    245.86368    218816.06     1.093714   -78711.621   -93007.875    14296.254    60.259622    60.259622    60.259622 
   10750    303.35822   -186.85558    218747.13    1.0940586   -78787.368   -93254.516    14467.147    60.253293    60.253293    60.253293 
   10800    299.70812    58.627193    218660.87    1.0944902   -78896.553   -93189.628    14293.074    60.245372    60.245372    60.245372 
   10850    298.00156    69.933159    218586.52    1.0948625   -79017.753   -93229.441    14211.689    60.238543    60.238543    60.238543 
   10900    300.52913   -17.911666     218544.9     1.095071   -79075.223   -93407.451    14332.228     60.23472     60.23472     60.23472 
   10950    298.49777     42.97426    218520.22    1.0951947   -79135.839   -93371.192    14235.353    60.232452    60.232452    60.232452 
   11000    297.22506    333.21616    218530.02    1.0951456   -79094.688   -93269.345    14174.657    60.233352    60.233352    60.233352 
   11050    301.36005   -137.84132    218597.43    1.0948079   -79020.359   -93392.214    14371.855    60.239545    60.239545    60.239545 
   11100    298.99913    60.744399    218630.92    1.0946401   -79037.763   -93297.025    14259.263    60.242621    60.242621    60.242621 
   11150    299.73052    167.22874    218667.41    1.0944575   -79025.353   -93319.496    14294.143    60.245973    60.245973    60.245973 
   11200    300.49001    238.96423     218759.9    1.0939947   -79013.587   -93343.949    14330.362    60.254466    60.254466    60.254466 
   11250    297.78334    165.61365    218926.75     1.093161   -79003.057   -93204.338    14201.282    60.269781    60.269781    60.269781 
   11300    300.07337    93.459511    219129.45    1.0921498   -78970.184   -93280.677    14310.493    60.288375    60.288375    60.288375 
   11350    300.13948   -203.65301     219330.2    1.0911502   -78924.951   -93238.597    14313.646    60.306781    60.306781    60.306781 
   11400    300.07438   -462.04612    219461.88    1.0904954   -78891.217   -93201.758    14310.541    60.318848    60.318848    60.318848 
   11450    301.09923   -297.58802    219461.48    1.0904974   -78865.337   -93224.753    14359.416    60.318811    60.318811    60.318811 
   11500    299.93897   -140.26747    219354.91    1.0910273   -78844.432   -93148.516    14304.084    60.309045    60.309045    60.309045 
   11550    300.66402   -12.597572    219210.04    1.0917483   -78813.357   -93152.018    14338.661    60.295765    60.295765    60.295765 
   11600    301.57302    108.55529    219075.17    1.0924204   -78822.764   -93204.776    14382.011    60.283397    60.283397    60.283397 
   11650    301.47548    212.49522    218988.97    1.0928504   -78846.512   -93223.872    14377.359    60.275489    60.275489    60.275489 
   11700     299.8008     228.8861    218969.42     1.092948   -78933.048   -93230.542    14297.494    60.273696    60.273696    60.273696 
   11750    298.60663   -100.15912     218997.6    1.0928073   -79090.939   -93331.484    14240.544    60.276281    60.276281    60.276281 
   11800    298.48205    52.387216    219011.65    1.0927372   -79126.116   -93360.719    14234.603     60.27757     60.27757     60.27757 
   11850    299.03728   -165.00231    219031.69    1.0926373   -79207.862   -93468.944    14261.082    60.279409    60.279409    60.279409 
   11900    300.30345   -251.52488    219010.23    1.0927443   -79179.546   -93501.012    14321.466     60.27744     60.27744     60.27744 
   11950    301.02494   -117.32704    218926.51    1.0931622    -79129.45   -93485.324    14355.873    60.269759    60.269759    60.269759 
   12000    300.31764    87.271748    218812.99    1.0937293   -79038.262   -93360.404    14322.142     60.25934     60.25934     60.25934 
   12050    303.12316     69.33445    218732.25     1.094133    -78955.25   -93411.187    14455.937    60.251927    60.251927    60.251927 
   12100    302.05593    143.27486    218702.25    1.0942831     -78949.1   -93354.141    14405.041    60.249172    60.249172    60.249172 
   12150    300.45705    187.82553     218730.6    1.0941413   -78922.626   -93251.417    14328.791    60.251775    60.251775    60.251775 
   12200    301.39043    34.047543    218807.25     1.093758    -78866.45   -93239.754    14373.304    60.258813    60.258813    60.258813 
   12250     301.1303   -150.58931    218885.87    1.0933652   -78880.482    -93241.38    14360.898    60.266029    60.266029    60.266029 
   12300    303.37071    -147.5419    218915.08    1.0932193   -78867.281   -93335.024    14467.743    60.268709    60.268709    60.268709 
   12350    300.98254   -92.541732    218914.01    1.0932246   -78939.166   -93293.017    14353.851    60.268612    60.268612    60.268612 
   12400    300.87378   -105.30006     218881.6    1.0933865   -79006.472   -93355.136    14348.665    60.265637    60.265637    60.265637 
   12450    299.71843    62.952102    218806.05     1.093764   -79077.421   -93370.987    14293.566    60.258703    60.258703    60.258703 
   12500     299.5452   -198.34239    218732.56    1.0941315   -79151.107   -93436.411    14285.304    60.251956    60.251956    60.251956 
   12550    297.58656     19.39143    218617.31    1.0947083   -79178.497   -93370.395    14191.897    60.241371    60.241371    60.241371 
   12600    298.89141   -34.286457    218493.86    1.0953268   -79219.034   -93473.159    14254.125     60.23003     60.23003     60.23003 
   12650    300.41455   -62.632894    218359.68    1.0959999   -79187.198   -93513.962    14326.764    60.217698    60.217698    60.217698 
   12700    299.62301   -106.92971    218213.95    1.0967318   -79186.326   -93475.342    14289.015    60.204299    60.204299    60.204299 
   12750    300.25881   -5.2908424    218059.85    1.0975069   -79168.167   -93487.503    14319.336    60.190123    60.190123    60.190123 
   12800    298.63369    142.13696     217924.4     1.098189   -79158.503   -93400.338    14241.835    60.177658    60.177658    60.177658 
   12850    299.46036    174.47556    217841.67    1.0986061   -79108.086   -93389.345    14281.259    60.170043    60.170043    60.170043 
   12900    300.05247    245.25091    217819.75    1.0987166     -79102.3   -93411.797    14309.496    60.168025    60.168025    60.168025 
   12950    301.04474    97.596958    217878.36    1.0984211   -79054.657   -93411.475    14356.818     60.17342     60.17342     60.17342 
   13000     299.8011     156.2039     217999.5    1.0978107   -79030.638   -93328.146    14297.508    60.184571    60.184571    60.184571 
   13050    301.81873    -115.0592    218155.23     1.097027   -79006.223   -93399.953    14393.729    60.198898    60.198898    60.198898 
   13100    301.25864   -239.43956    218280.26    1.0963986   -79018.106   -93385.124    14367.018    60.210397    60.210397    60.210397 
   13150    299.17932    88.672697    218338.82    1.0961046   -79003.303   -93271.159    14267.856     60.21578     60.21578     60.21578 
   13200    301.62148   -10.103536    218390.89    1.0958433   -79058.015   -93442.337    14384.322    60.220566    60.220566    60.220566 
   13250    301.30459   -139.51792    218447.58    1.0955589    -79078.08    -93447.29     14369.21    60.225777    60.225777    60.225777 
   13300    301.43529   -208.59309    218463.73    1.0954779   -79102.327    -93477.77    14375.443    60.227262    60.227262    60.227262 
   13350    300.90752   -246.77496    218406.78    1.0957635   -79157.166    -93507.44    14350.274    60.222027    60.222027    60.222027 
   13400    298.92224   -296.01182    218262.12    1.0964898   -79215.326   -93470.922    14255.596    60.208729    60.208729    60.208729 
   13450    298.56893     55.86504    218021.31    1.0977009   -79267.166   -93505.913    14238.746    60.186577    60.186577    60.186577 
   13500    299.79606    364.54089    217804.32    1.0987945    -79295.57   -93592.838    14297.268    60.166604    60.166604    60.166604 
   13550    299.79138    237.94948    217710.08    1.0992701   -79280.815   -93577.861    14297.045    60.157925    60.157925    60.157925 
   13600    298.69603    166.38192    217691.04    1.0993662   -79280.634   -93525.441    14244.808    60.156171    60.156171    60.156171 
   13650    301.26222    25.354886    217709.05    1.0992753   -79268.563   -93635.752    14367.189     60.15783     60.15783     60.15783 
   13700    296.85533    238.75906    217753.95    1.0990486   -79333.697   -93490.722    14157.025    60.161965    60.161965    60.161965 
   13750    299.05063    135.98474    217857.33    1.0985271   -79280.766   -93542.484    14261.718    60.171485    60.171485    60.171485 
   13800    298.34928    219.57782    217998.24    1.0978171   -79261.242   -93489.514    14228.271    60.184454    60.184454    60.184454 
   13850    300.21077    -205.1499    218165.55    1.0969751   -79221.399   -93538.445    14317.046    60.199847    60.199847    60.199847 
   13900    300.06132    -165.2719    218266.87    1.0964659   -79199.809   -93509.727    14309.918    60.209166    60.209166    60.209166 
   13950    299.82523   -78.916318    218304.94    1.0962747   -79160.516   -93459.175    14298.659    60.212666    60.212666    60.212666 
   14000    296.98625    107.23374    218313.79    1.0962303   -79132.463   -93295.732    14163.268    60.213479    60.213479    60.213479 
   14050    298.72962   -183.13028    218315.21    1.0962232   -79075.778   -93322.188     14246.41    60.213609    60.213609    60.213609 
   14100    301.28333   -86.439695    218265.55    1.0964725   -78997.004     -93365.2    14368.196    60.209044    60.209044    60.209044 
   14150    304.01587      135.599    218185.72    1.0968737   -78994.381   -93492.892    14498.511    60.201703    60.201703    60.201703 
   14200    303.33651    213.58797    218162.52    1.0969904   -79049.923   -93516.035    14466.112    60.199569    60.199569    60.199569 
   14250     302.4823    177.43613    218224.42    1.0966792   -79171.837   -93597.212    14425.375    60.205262    60.205262    60.205262 
   14300    299.15264    77.344513    218354.94    1.0960237   -79354.941   -93621.524    14266.583    60.217262    60.217262    60.217262 
   14350    297.15674    34.385792    218506.05    1.0952657   -79570.656   -93742.054    14171.399     60.23115     60.23115     60.23115 
   14400    298.89565   -230.52303    218636.58    1.0946118   -79680.404   -93934.732    14254.328    60.243141    60.243141    60.243141 
   14450    297.83277     -365.658     218681.4    1.0943874   -79702.378   -93906.017    14203.639    60.247258    60.247258    60.247258 
   14500    296.59487   -8.3307125    218612.33    1.0947333   -79646.438   -93791.042    14144.604    60.240913    60.240913    60.240913 
   14550    297.25016    145.84477    218518.35     1.095204   -79596.106    -93771.96    14175.854     60.23228     60.23228     60.23228 
   14600    297.81305    87.225928    218449.83    1.0955476   -79476.858   -93679.557    14202.698    60.225984    60.225984    60.225984 
   14650    299.39687    95.255676    218394.55    1.0958249   -79312.621   -93590.851    14278.231    60.220904    60.220904    60.220904 
   14700    302.06486    101.10485    218352.85    1.0960342   -79226.183    -93631.65    14405.467     60.21707     60.21707     60.21707 
   14750    303.27136    235.61654    218345.68    1.0960702   -79082.601   -93545.606    14463.005    60.216411    60.216411    60.216411 
   14800    303.78097    293.60968    218426.22     1.095666   -79033.031   -93520.339    14487.308    60.223814    60.223814    60.223814 
   14850    303.90452    -25.10372    218601.66    1.0947867   -79081.272   -93574.472      14493.2    60.239933    60.239933    60.239933 
   14900    301.38161   -343.23666    218782.15    1.0938835    -79110.46   -93483.343    14372.883    60.256509    60.256509    60.256509 
   14950    298.55558   -335.89424    218867.63    1.0934563   -79223.802   -93461.912     14238.11    60.264355    60.264355    60.264355 
   15000    297.96836   -213.29793    218833.94    1.0936246   -79295.311   -93505.416    14210.105    60.261263    60.261263    60.261263 
   15050    302.48871    -158.3302    218719.59    1.0941964   -79262.007   -93687.688     14425.68    60.250764    60.250764    60.250764 
   15100    298.92718   -127.45565    218571.49    1.0949378   -79298.406   -93554.238    14255.831    60.237162    60.237162    60.237162 
   15150    297.98426   -28.515055     218376.3    1.0959164   -79324.482   -93535.346    14210.863    60.219226    60.219226    60.219226 
   15200     299.0321    24.483105    218148.02    1.0970633   -79236.356   -93497.191    14260.835    60.198235    60.198235    60.198235 
   15250    300.81583    289.34994    217935.93    1.0981309   -79177.042   -93522.943    14345.901     60.17872     60.17872     60.17872 
   15300    299.92023    334.31918    217818.95    1.0987207   -79139.281   -93442.471     14303.19    60.167951    60.167951    60.167951 
   15350    298.40348     216.3808    217804.13    1.0987954   -79125.955   -93356.811    14230.856    60.166586    60.166586    60.166586 
   15400    300.66509   -28.691924    217842.18    1.0986035   -79104.138    -93442.85    14338.712    60.170089    60.170089    60.170089 
   15450    300.25015    381.05838    217890.57    1.0983595   -79119.202   -93438.126    14318.924    60.174544    60.174544    60.174544 
   15500    300.39427    66.284373    218029.63     1.097659   -79154.858   -93480.655    14325.797    60.187343    60.187343    60.187343 
   15550     299.1122    11.274607    218200.71    1.0967984    -79176.91   -93441.565    14264.655    60.203081    60.203081    60.203081 
   15600    301.46445    205.33968    218378.92    1.0959033   -79196.831   -93573.664    14376.834    60.219467    60.219467    60.219467 
   15650    300.89258   -231.74451    218610.72    1.0947413   -79234.799    -93584.36    14349.561    60.240766    60.240766    60.240766 
   15700    298.91856   -341.22801    218765.52    1.0939667   -79269.893   -93525.313     14255.42    60.254981    60.254981    60.254981 
   15750    299.67719    -135.3491    218791.67    1.0938359   -79311.983   -93603.582    14291.599    60.257382    60.257382    60.257382 
   15800    298.51256   -179.31813    218760.57    1.0939914    -79284.21   -93520.268    14236.058    60.254527    60.254527    60.254527 
   15850    298.09026    108.42241    218686.72    1.0943608   -79285.288   -93501.207    14215.918    60.247746    60.247746    60.247746 
   15900    300.30223   -19.293347    218619.56     1.094697   -79285.855   -93607.262    14321.407    60.241578    60.241578    60.241578 
   15950     301.2635    196.25348    218546.94    1.0950608   -79310.174   -93677.424     14367.25    60.234907    60.234907    60.234907 
   16000    300.02034   -13.896125    218526.58    1.0951628   -79345.707   -93653.671    14307.964    60.233036    60.233036    60.233036 
Loop time of 231.955 on 28 procs for 10000 steps with 24000 atoms

Performance: 3.725 ns/day, 6.443 hours/ns, 43.112 timesteps/s
100.0% CPU use with 28 MPI tasks x no OpenMP threads

MPI task timing breakdown:
Section |  min time  |  avg time  |  max time  |%varavg| %total
---------------------------------------------------------------
Pair    | 99.645     | 110.34     | 119.75     |  43.4 | 47.57
Bond    | 0.0077517  | 0.0095482  | 0.016688   |   1.7 |  0.00
Kspace  | 70.151     | 79.505     | 90.185     |  51.1 | 34.28
Neigh   | 3.4583     | 3.4616     | 3.4642     |   0.1 |  1.49
Comm    | 3.9803     | 4.0722     | 4.1355     |   1.9 |  1.76
Output  | 0.035294   | 0.035644   | 0.042265   |   0.7 |  0.02
Modify  | 26.172     | 30.682     | 33.96      |  56.0 | 13.23
Other   |            | 3.852      |            |       |  1.66

Nlocal:    857.143 ave 892 max 829 min
Histogram: 1 1 5 4 7 5 3 0 1 1
Nghost:    8023 ave 8081 max 7951 min
Histogram: 2 0 3 1 7 3 4 3 3 2
Neighs:    248818 ave 266842 max 231720 min
Histogram: 2 3 2 5 3 1 5 4 2 1

Total # of neighbors = 6966909
Ave neighs/atom = 290.288
Ave special neighs/atom = 2
Neighbor list builds = 531
Dangerous builds = 0

clear
OMP_NUM_THREADS environment is not set. Defaulting to 1 thread. (../comm.cpp:90)
  using 1 OpenMP thread(s) per MPI task












Total wall time: 0:06:10
