LAMMPS (17 Nov 2016)
OMP_NUM_THREADS environment is not set. Defaulting to 1 thread. (../comm.cpp:90)
  using 1 OpenMP thread(s) per MPI task
## 1. Initialization
units         real ## grams/mole, Angstroms, femtoseconds, Kcal/mole, Kelvin, atmospheres, multiple of electron charge (1.0 for a proton)
dimension     3 ## runs a 3D simulation
processors    * * * grid numa ## LAMMPS chooses the appropriate number of processors
boundary      p p p ## periodic in all dimensions
atom_style    full ## bonds, angles, dihedrals, impropers, charge
bond_style    harmonic
angle_style   harmonic


## 2. Atom definition
read_data	water.dat
  orthogonal box = (0 0 0) to (31 31 31)
  2 by 2 by 7 MPI processor grid
  2 by 2 by 7 core grid within node
  reading atoms ...
  3000 atoms
  scanning bonds ...
  2 = max bonds/atom
  scanning angles ...
  1 = max angles/atom
  reading bonds ...
  2000 bonds
  reading angles ...
  1000 angles
  2 = max # of 1-2 neighbors
  1 = max # of 1-3 neighbors
  1 = max # of 1-4 neighbors
  2 = max # of special neighbors

## 3. Settings
pair_style lj/cut/tip4p/long 1 2 1 1 0.1546 8.5
pair_modify tail yes
pair_coeff 2 2 0.0 0.0
pair_coeff 1 2 0.0 0.0
pair_coeff 1 1 0.18520 3.1589
bond_style harmonic
bond_coeff 1 1000.0 0.9572
angle_style harmonic
angle_coeff 1 75.0 104.52
kspace_style pppm/tip4p 1.0e-5

neighbor 2.0 bin
neigh_modify every 1 delay 0 check yes

thermo      50
thermo_style custom step temp press vol density etotal pe ke lx ly lz
thermo_modify norm no flush yes
dump	H2Oxyz all xyz 1000 H2O.xyz
dump  finalpos all custom 150000 finalpos.dump id mol type q xs ys zs vx vy vz
dump_modify finalpos sort id pbc yes
restart 100000 restart.res

compute myRDF all rdf 500 1 1 1 2 2 2
fix 3 all ave/time 2 100 500 c_myRDF[*] file H2O.rdf mode vector

compute myMSD all msd
fix 5 all ave/time 100 1 100 c_myMSD[*] file H2O.msd mode vector

minimize 0 1.0e-6 1000 100000
PPPM initialization ...
  extracting TIP4P info from pair style
WARNING: Using 12-bit tables for long-range coulomb (../kspace.cpp:317)
  G vector (1/distance) = 0.369625
  grid = 36 36 36
  stencil order = 5
  estimated absolute RMS force accuracy = 0.00326832
  estimated relative force accuracy = 9.84246e-06
  using double precision FFTs
  3d grid and FFT values/proc = 8125 2592
Neighbor list info ...
  2 neighbor list requests
  update every 1 steps, delay 0 steps, check yes
  max neighbors/atom: 2000, page size: 100000
  master list distance cutoff = 10.8092
  ghost atom cutoff = 10.8092
  binsize = 5.4046 -> bins = 6 6 6
Memory usage per processor = 11.9217 Mbytes
Step Temp Press Volume Density TotEng PotEng KinEng Lx Ly Lz 
       0            0    6255.6388        29791    1.0041715    -6097.095    -6097.095            0           31           31           31 
       6            0   -2871.3377        29791    1.0041715   -6186.6026   -6186.6026            0           31           31           31 
Loop time of 0.212203 on 28 procs for 6 steps with 3000 atoms

99.0% CPU use with 28 MPI tasks x no OpenMP threads

Minimization stats:
  Stopping criterion = linesearch alpha is zero
  Energy initial, next-to-last, final = 
        -6097.09496508     -6186.60257174     -6186.60257174
  Force two-norm initial, final = 578.984 2.30253
  Force max component initial, final = 14.8097 0.0591784
  Final line search alpha, max atom move = 1.86265e-09 1.10228e-10
  Iterations, force evaluations = 6 66

MPI task timing breakdown:
Section |  min time  |  avg time  |  max time  |%varavg| %total
---------------------------------------------------------------
Pair    | 0.029869   | 0.059832   | 0.084734   |   6.7 | 28.20
Bond    | 0.00022233 | 0.00034442 | 0.00062848 |   0.6 |  0.16
Kspace  | 0.10932    | 0.13413    | 0.16439    |   4.5 | 63.21
Neigh   | 0.0016291  | 0.0016848  | 0.0017267  |   0.1 |  0.79
Comm    | 0.0096186  | 0.010699   | 0.011767   |   0.6 |  5.04
Output  | 0          | 0          | 0          |   0.0 |  0.00
Modify  | 0          | 0          | 0          |   0.0 |  0.00
Other   |            | 0.005513   |            |       |  2.60

Nlocal:    107.143 ave 151 max 74 min
Histogram: 8 0 0 8 0 0 8 0 0 4
Nghost:    3534 ave 3814 max 3305 min
Histogram: 9 3 0 4 0 0 4 0 0 8
Neighs:    28642.9 ave 40876 max 18411 min
Histogram: 4 4 1 3 1 7 4 0 0 4

Total # of neighbors = 802000
Ave neighs/atom = 267.333
Ave special neighs/atom = 2
Neighbor list builds = 1
Dangerous builds = 0

velocity all create 10.0 12345678

fix 1 all shake 0.0001 20 10000 b 1 a 1
  0 = # of size 2 clusters
  0 = # of size 3 clusters
  0 = # of size 4 clusters
  1000 = # of frozen angles
fix 2 all npt temp 300.0 300.0 100.0 iso 1.0 1.0 1000.0
fix 4 all momentum 1 linear 1 1 1

## 4. Run
timestep 1.0
run 50000
PPPM initialization ...
  extracting TIP4P info from pair style
WARNING: Using 12-bit tables for long-range coulomb (../kspace.cpp:317)
  G vector (1/distance) = 0.369625
  grid = 36 36 36
  stencil order = 5
  estimated absolute RMS force accuracy = 0.00326832
  estimated relative force accuracy = 9.84246e-06
  using double precision FFTs
  3d grid and FFT values/proc = 8125 2592
SHAKE stats (type/ave/delta) on step 6
  1 0.96025 1.72262e-05
  1 102.706 0.00446762
Memory usage per processor = 11.6719 Mbytes
Step Temp Press Volume Density TotEng PotEng KinEng Lx Ly Lz 
       6    15.002501   -1933.3347        29791    1.0041715   -6190.9825    -6280.377    89.394493           31           31           31 
      50    163.29496   -5316.6394        29737     1.005995   -6019.2814   -6992.2971    973.01578    30.981258    30.981258    30.981258 
     100    472.31964   -2257.7931    29389.937    1.0178747   -6026.2457   -8840.6281    2814.3824    30.860258    30.860258    30.860258 
     150    504.87908    8791.8761    29035.818    1.0302886   -6394.0203   -9402.4126    3008.3923    30.735812    30.735812    30.735812 
     200    476.83606    4874.8749     29109.12    1.0276942   -6850.8611   -9692.1551    2841.2941    30.761655    30.761655    30.761655 
     250    434.27086    1762.4336    29383.586    1.0180947   -7272.4884   -9860.1518    2587.6634    30.858035    30.858035    30.858035 
     300    398.21493    16.778593    29663.807    1.0084772   -7631.7555   -10004.575    2372.8191    30.955819    30.955819    30.955819 
     350    374.03323   -592.82468    29874.631    1.0013604   -7934.7994   -10163.529    2228.7291    31.028981    31.028981    31.028981 
     400    347.30619   -1465.8484    30009.561   0.99685807   -8191.7547   -10261.227    2069.4723    31.075626    31.075626    31.075626 
     450    348.43937   -2021.1202    30049.334   0.99553862   -8422.2937   -10498.518    2076.2245    31.089348    31.089348    31.089348 
     500    329.01888   -1003.1106    30000.113     0.997172   -8633.2292   -10593.734    1960.5048    31.072364    31.072364    31.072364 
     550    325.31392   -1099.1414    29904.401    1.0003635   -8817.9294   -10756.358    1938.4283    31.039285    31.039285    31.039285 
     600    311.39464   -751.27949    29766.519    1.0049974   -8979.4916    -10834.98    1855.4884    30.991506    30.991506    30.991506 
     650    303.43352   -253.79553     29608.11    1.0103743    -9112.398   -10920.449    1808.0509    30.936432    30.936432    30.936432 
     700    303.97446   -183.47568    29461.562    1.0154001   -9218.7031   -11029.977    1811.2741    30.885307    30.885307    30.885307 
     750    298.50071   -14.860757    29332.464    1.0198691   -9314.4361   -11093.094     1778.658    30.840129    30.840129    30.840129 
     800    292.98485    497.24122    29223.122     1.023685   -9395.9126   -11141.704     1745.791     30.80176     30.80176     30.80176 
     850    297.88251    442.93032    29147.663    1.0263352    -9455.886    -11230.86    1774.9744    30.775226    30.775226    30.775226 
     900    296.31538   -255.31182    29098.639    1.0280643   -9499.6984   -11265.335    1765.6365    30.757962    30.757962    30.757962 
     950    293.27385    393.63049    29057.455    1.0295214   -9526.3867     -11273.9    1747.5131    30.743445    30.743445    30.743445 
    1000    292.39334    777.30928    29040.522    1.0301217   -9531.9852   -11274.252    1742.2664    30.737472    30.737472    30.737472 
    1050    293.97856    943.47367    29065.756    1.0292274   -9519.2512   -11270.963    1751.7122    30.746372    30.746372    30.746372 
    1100    296.25688    1051.0875    29142.269    1.0265252   -9488.8306   -11254.118    1765.2879    30.773327    30.773327    30.773327 
    1150    300.24174     318.2444    29255.896    1.0225383   -9452.2424   -11241.275    1789.0322    30.813271    30.813271    30.813271 
    1200     306.8061    -149.1224    29369.781    1.0185732    -9423.137   -11251.284    1828.1469    30.853202    30.853202    30.853202 
    1250     306.0768    477.14528    29469.741    1.0151183   -9407.6766   -11231.478    1823.8013    30.888165    30.888165    30.888165 
    1300    304.80281   -104.36706    29570.952    1.0116439   -9413.0469   -11229.257      1816.21    30.923485    30.923485    30.923485 
    1350    299.18866   -264.18092    29657.771    1.0086825   -9428.1853   -11210.943    1782.7573    30.953719    30.953719    30.953719 
    1400    304.40322   -214.18328     29722.13    1.0064983   -9444.5465   -11258.376     1813.829    30.976093    30.976093    30.976093 
    1450    303.25191    216.61608    29767.459    1.0049656   -9472.4156   -11279.384    1806.9687    30.991832    30.991832    30.991832 
    1500    301.18767    378.19628    29817.534    1.0032779   -9505.8381   -11300.507    1794.6687    31.009201    31.009201    31.009201 
    1550      298.811   -64.694476     29880.74    1.0011557   -9531.5439   -11312.051     1780.507    31.031096    31.031096    31.031096 
    1600    292.88956   -777.66433    29930.351   0.99949622   -9542.3216   -11287.545    1745.2233     31.04826     31.04826     31.04826 
    1650     295.7225   -510.98469    29939.278   0.99919819   -9537.2149   -11299.319    1762.1037    31.051347    31.051347    31.051347 
    1700    302.28222   -370.78572    29921.817   0.99978128    -9513.646   -11314.837    1801.1907    31.045309    31.045309    31.045309 
    1750    303.82204    -86.50344    29887.807     1.000919   -9493.4675   -11303.833    1810.3659    31.033542    31.033542    31.033542 
    1800    302.16678   -391.71981     29848.54    1.0022357   -9490.0453   -11290.548    1800.5029    31.019946    31.019946    31.019946 
    1850    293.19057    558.97718    29803.063    1.0037651   -9488.6962   -11235.713    1747.0168    31.004184    31.004184    31.004184 
    1900    309.89749   -150.67497    29772.491    1.0047958   -9478.8369   -11325.404    1846.5674    30.993579    30.993579    30.993579 
    1950    311.13308    570.90694    29748.046    1.0056215   -9483.3571   -11337.287    1853.9298    30.985094    30.985094    30.985094 
    2000    309.91785    968.32233    29759.448    1.0052361   -9512.5862   -11359.275    1846.6887    30.989052    30.989052    30.989052 
    2050     299.5309    280.45129      29822.7    1.0031041   -9552.9285   -11337.725    1784.7966    31.010992    31.010992    31.010992 
    2100    288.43418   -508.40448    29899.582    1.0005248   -9582.5537   -11301.229    1718.6752    31.037617    31.037617    31.037617 
    2150    290.13143   -525.89917    29945.295   0.99899745   -9589.3389   -11318.127    1728.7886    31.053427    31.053427    31.053427 
    2200    296.28396   -353.84679    29957.793   0.99858066   -9581.1641   -11346.613    1765.4493    31.057746    31.057746    31.057746 
    2250    297.99569   -366.27252    29946.429   0.99895961   -9576.0874   -11351.736    1775.6488    31.053819    31.053819    31.053819 
    2300    297.11904    61.973148     29916.21   0.99996869   -9577.0938   -11347.519    1770.4252     31.04337     31.04337     31.04337 
    2350     304.2829    21.924911    29885.658    1.0009909   -9579.6118   -11392.724    1813.1121    31.032798    31.032798    31.032798 
    2400    298.28714    167.39985    29864.205      1.00171   -9588.5822   -11365.968    1777.3855    31.025371    31.025371    31.025371 
    2450    296.19308    9.3720464    29855.196    1.0020123   -9591.7757   -11356.683    1764.9077    31.022251    31.022251    31.022251 
    2500    302.41776    601.40195    29857.182    1.0019456   -9583.6838   -11385.682    1801.9983    31.022939    31.022939    31.022939 
    2550    301.32702    24.724233    29886.561    1.0009607   -9572.1573   -11367.656     1795.499    31.033111    31.033111    31.033111 
    2600    302.12791    209.86035    29922.639   0.99975383   -9562.4188    -11362.69    1800.2712    31.045593    31.045593    31.045593 
    2650    298.55078   -45.557207    29963.073   0.99840471   -9552.0105   -11330.967    1778.9564    31.059571    31.059571    31.059571 
    2700    294.06033   -145.60702    30000.163   0.99717033   -9538.0947   -11290.294    1752.1995    31.072381    31.072381    31.072381 
    2750    303.00842   -404.04014    30021.577   0.99645908   -9522.1205   -11327.638    1805.5179    31.079773    31.079773    31.079773 
    2800    305.80606    10.920876    30023.076   0.99640934   -9509.2736   -11331.462     1822.188     31.08029     31.08029     31.08029 
    2850    304.25502    228.79396    30025.737   0.99632102   -9508.2286   -11321.175    1812.9459    31.081208    31.081208    31.081208 
    2900    305.41833   -104.20948    30037.358   0.99593557   -9521.0487   -11340.926    1819.8776    31.085217    31.085217    31.085217 
    2950     292.8004   -667.19623    30046.047   0.99564755    -9539.571   -11284.263     1744.692    31.088215    31.088215    31.088215 
    3000    295.11511   -137.93265    30026.669    0.9962901   -9544.8755    -11303.36    1758.4845     31.08153     31.08153     31.08153 
    3050    302.52596   -21.097422    29995.459   0.99732673   -9532.6968    -11335.34    1802.6431    31.070757    31.070757    31.070757 
    3100    308.15366    653.53591    29973.913   0.99804361   -9522.1417   -11358.318    1836.1765    31.063316    31.063316    31.063316 
    3150    309.33415    581.50987    29986.757   0.99761614   -9530.0574   -11373.268    1843.2106    31.067752    31.067752    31.067752 
    3200    309.15839   -131.40535    30032.061   0.99611122   -9559.6445   -11401.808    1842.1634     31.08339     31.08339     31.08339 
    3250     291.5474   -279.15062    30081.691   0.99446778    -9592.634    -11329.86    1737.2258    31.100503    31.100503    31.100503 
    3300    287.48407    -276.2448    30113.758   0.99340884   -9610.2113   -11323.225    1713.0139     31.11155     31.11155     31.11155 
    3350    291.68085   -419.86313    30124.578   0.99305203   -9606.3049   -11344.326    1738.0209    31.115276    31.115276    31.115276 
    3400    295.78959   -469.03834    30111.479   0.99348402    -9577.035   -11339.538    1762.5035    31.110765    31.110765    31.110765 
    3450    298.12341   -331.94162    30076.239   0.99464805   -9534.7494   -11311.159    1776.4098    31.098624    31.098624    31.098624 
    3500    309.83706    123.17735     30029.27   0.99620379   -9496.4518   -11342.659    1846.2073    31.082427    31.082427    31.082427 
    3550    310.56812    258.92967    30000.992   0.99714279     -9475.02   -11325.583    1850.5634    31.072668    31.072668    31.072668 
    3600    310.54766    151.07392    29998.082   0.99723954   -9476.3415   -11326.783    1850.4415    31.071663    31.071663    31.071663 
    3650    299.93668    382.77077    30012.119   0.99677311   -9497.9818   -11285.196    1787.2145    31.076508    31.076508    31.076508 
    3700     303.7538    80.427766    30047.855   0.99558765   -9527.9348   -11337.894    1809.9593    31.088838    31.088838    31.088838 
    3750    292.65414    -198.6519     30098.13   0.99392465   -9550.0751   -11293.896    1743.8205    31.106167    31.106167    31.106167 
    3800    302.42999   -864.02773    30137.823    0.9926156   -9553.9818   -11356.053    1802.0712    31.119835    31.119835    31.119835 
    3850     294.9272   -691.76061    30139.914   0.99254674   -9550.7953    -11308.16    1757.3648    31.120555    31.120555    31.120555 
    3900    298.62331   -415.27145    30105.145   0.99369304   -9544.3002   -11323.689    1779.3886    31.108584    31.108584    31.108584 
    3950    304.30507   -424.67495    30050.322   0.99550591   -9538.7201   -11351.964    1813.2441    31.089689    31.089689    31.089689 
    4000    294.63839    -62.63183    29982.569   0.99775551   -9536.0443   -11291.688    1755.6439    31.066306    31.066306    31.066306 
    4050    300.90267    355.75919    29909.619     1.000189   -9527.6093    -11320.58    1792.9705     31.04109     31.04109     31.04109 
    4100    299.27637    630.96492    29854.257    1.0020438   -9518.3206   -11301.601    1783.2799    31.021926    31.021926    31.021926 
    4150    305.53036    304.49086    29829.028    1.0028913   -9511.1909   -11331.736    1820.5452    31.013185    31.013185    31.013185 
    4200    305.27807   -129.25592    29824.557    1.0030417   -9511.5453   -11330.587    1819.0419    31.011635    31.011635    31.011635 
    4250    297.16464    141.37815    29821.355    1.0031493   -9517.4637   -11288.161    1770.6969    31.010526    31.010526    31.010526 
    4300    297.74567    -126.3875    29817.456    1.0032805   -9523.1946   -11297.354    1774.1591    31.009174    31.009174    31.009174 
    4350    309.71708   -138.98737    29807.596    1.0036124    -9533.465   -11378.957    1845.4923    31.005755    31.005755    31.005755 
    4400    307.33371   -47.181736    29800.464    1.0038526   -9556.0251   -11387.316    1831.2907    31.003282    31.003282    31.003282 
    4450    303.60647    -71.30547    29795.153    1.0040315   -9591.0075   -11400.089    1809.0815     31.00144     31.00144     31.00144 
    4500    289.98927    721.39584    29795.103    1.0040332   -9624.0661   -11352.008    1727.9415    31.001423    31.001423    31.001423 
    4550    299.63463   -395.41991    29821.554    1.0031427    -9639.897   -11425.312    1785.4147    31.010594    31.010594    31.010594 
    4600    297.12165    101.36535    29837.715    1.0025993    -9645.729    -11416.17    1770.4408    31.016195    31.016195    31.016195 
    4650    295.31233    451.67941    29853.789    1.0020595   -9647.1867   -11406.846    1759.6597    31.021764    31.021764    31.021764 
    4700    294.74715    278.67054    29890.399    1.0008322   -9644.2823   -11400.574    1756.2919    31.034439    31.034439    31.034439 
    4750    301.64978    71.785175    29941.659   0.99911875   -9637.2311   -11434.653    1797.4223     31.05217     31.05217     31.05217 
    4800    294.41664   -452.50508    29994.775   0.99734948   -9624.9114   -11379.234    1754.3226    31.070521    31.070521    31.070521 
    4850    293.51379   -193.12178    30025.322   0.99633479   -9597.5798   -11346.523    1748.9428    31.081065    31.081065    31.081065 
    4900    301.43976    128.58795    30040.997   0.99581492   -9560.3622   -11356.533    1796.1708    31.086473    31.086473    31.086473 
    4950    308.54563   -439.82121    30064.334   0.99504191   -9527.5422   -11366.054    1838.5121    31.094521    31.094521    31.094521 
    5000    300.26148    378.54724    30083.157   0.99441934   -9510.2838   -11299.434    1789.1499    31.101008    31.101008    31.101008 
    5050    296.51961    496.68249    30115.149   0.99336294   -9501.1066    -11267.96    1766.8534    31.112029    31.112029    31.112029 
    5100     306.1672    -290.2892     30160.86   0.99185743   -9497.0422   -11321.382    1824.3399    31.127763    31.127763    31.127763 
    5150    303.89603    -517.0606    30191.144    0.9908625   -9506.0987   -11316.906    1810.8068    31.138178    31.138178    31.138178 
    5200    290.58744    -261.3277    30196.911   0.99067328   -9525.9722   -11257.478    1731.5057     31.14016     31.14016     31.14016 
    5250    296.03881   -655.69466    30182.281    0.9911535   -9536.6323   -11300.621    1763.9885     31.13513     31.13513     31.13513 
    5300    300.80023   -420.15599    30133.896   0.99274496   -9537.8175   -11330.178      1792.36    31.118484    31.118484    31.118484 
    5350    307.63865   -129.55048    30063.704   0.99506278   -9543.2709   -11376.379    1833.1077    31.094303    31.094303    31.094303 
    5400     300.5928   -50.869404    29986.779   0.99761543   -9561.7986   -11352.923    1791.1241     31.06776     31.06776     31.06776 
    5450     312.2119    122.12446    29905.598    1.0003235    -9590.317   -11450.675    1860.3581    31.039699    31.039699    31.039699 
    5500    306.20538    405.43097    29844.242      1.00238   -9626.0657   -11450.633    1824.5674    31.018457    31.018457    31.018457 
    5550    298.44016    801.79963    29813.869    1.0034012      -9658.6   -11436.897    1778.2973     31.00793     31.00793     31.00793 
    5600    294.45182    280.52477    29820.108    1.0031913   -9675.3729   -11429.905    1754.5322    31.010093    31.010093    31.010093 
    5650    292.92549    5.7554018    29846.051    1.0023193   -9672.3313   -11417.769    1745.4373    31.019083    31.019083    31.019083 
    5700     298.9512    2.7082101    29874.638    1.0013602   -9654.7357   -11436.078    1781.3423    31.028984    31.028984    31.028984 
    5750     303.6665   -120.69786    29905.867    1.0003145   -9624.4663   -11433.905    1809.4391    31.039792    31.039792    31.039792 
    5800    305.47224    120.27295    29940.609   0.99915377   -9592.3547   -11412.554    1820.1989    31.051807    31.051807    31.051807 
    5850    300.15351    329.30633    29988.225   0.99756731   -9573.6951   -11362.202    1788.5065    31.068259    31.068259    31.068259 
    5900    296.80696   -6.0074387    30045.416   0.99566844   -9564.0282   -11332.594    1768.5656    31.087997    31.087997    31.087997 
    5950      294.443   -87.357065    30099.195   0.99388945   -9553.2446   -11307.724    1754.4796    31.106534    31.106534    31.106534 
    6000    308.32234   -900.02983    30140.847   0.99251599   -9540.1716   -11377.353    1837.1816    31.120876    31.120876    31.120876 
    6050     304.6214    -550.1282    30149.517    0.9922306   -9538.3668   -11353.496     1815.129     31.12386     31.12386     31.12386 
    6100    307.28707   -930.85413    30131.139   0.99283577   -9540.5792   -11371.592    1831.0128    31.117535    31.117535    31.117535 
    6150    302.67961   -20.807104    30076.148   0.99465106   -9548.3732   -11351.932    1803.5586    31.098593    31.098593    31.098593 
    6200    302.03829    173.21392    30020.497   0.99649493   -9558.6644   -11358.402    1799.7372      31.0794      31.0794      31.0794 
    6250    301.81761    245.74835    29977.082   0.99793812   -9572.6824   -11371.105    1798.4223    31.064411    31.064411    31.064411 
    6300    311.91394   -291.34738    29942.671   0.99908499   -9597.7922   -11456.375    1858.5827     31.05252     31.05252     31.05252 
    6350    304.66272   -153.84576    29909.374    1.0001972   -9635.5573   -11450.933    1815.3752    31.041005    31.041005    31.041005 
    6400    298.82703    164.60949    29879.633    1.0011928   -9662.6451   -11443.248    1780.6025    31.030713    31.030713    31.030713 
    6450    298.32247    84.393342    29859.136    1.0018801   -9674.0164   -11451.612     1777.596    31.023616    31.023616    31.023616 
    6500    299.12449   -70.142894    29848.634    1.0022326   -9671.5664   -11453.941    1782.3749    31.019978    31.019978    31.019978 
    6550    297.76359   -340.11776    29837.342    1.0026119   -9661.5308   -11435.797    1774.2658    31.016066    31.016066    31.016066 
    6600     298.0878    35.505689    29813.596    1.0034104   -9648.3689   -11424.567    1776.1977    31.007836    31.007836    31.007836 
    6650    297.36421    429.67838    29795.626    1.0040156    -9639.013   -11410.899    1771.8861    31.001605    31.001605    31.001605 
    6700    303.91086    5.1283998    29796.025    1.0040021   -9629.6682   -11440.563    1810.8952    31.001743    31.001743    31.001743 
    6750    292.70054    404.01561    29799.794    1.0038751   -9623.1622   -11367.259    1744.0969     31.00305     31.00305     31.00305 
    6800    300.48264   -12.897417    29811.501    1.0034809   -9609.9362   -11400.404    1790.4677    31.007109    31.007109    31.007109 
    6850    308.44678    6.0999296    29826.861    1.0029642   -9575.4727   -11413.396    1837.9231    31.012434    31.012434    31.012434 
    6900    309.21361    882.06168    29853.783    1.0020597   -9530.3258   -11372.818    1842.4924    31.021762    31.021762    31.021762 
    6950     310.9903    409.57097    29928.715   0.99955086   -9505.7823   -11358.861     1853.079    31.047695    31.047695    31.047695 
    7000    301.13122    366.56162    30037.072   0.99594505   -9508.5254   -11302.858    1794.3323    31.085119    31.085119    31.085119 
    7050    302.75239    129.18934    30159.952   0.99188728   -9524.7354   -11328.728    1803.9923     31.12745     31.12745     31.12745 
    7100    299.16202   -404.22723    30282.768   0.98786454   -9551.1075   -11333.706    1782.5986    31.169645    31.169645    31.169645 
    7150    295.81205   -857.30653    30379.477   0.98471982   -9581.8095   -11344.447    1762.6373     31.20279     31.20279     31.20279 
    7200    293.95512    -1510.989    30421.859   0.98334797   -9608.7594   -11360.332    1751.5725    31.217293    31.217293    31.217293 
    7250    293.99445   -1190.8367     30386.31   0.98449837   -9621.2279   -11373.035    1751.8069    31.205129    31.205129    31.205129 
    7300    293.58132   -340.99245    30291.199    0.9875896   -9611.8441   -11361.189    1749.3452    31.172537    31.172537    31.172537 
    7350    299.89272   -263.31239    30179.942    0.9912303   -9555.6079    -11342.56    1786.9525    31.134326    31.134326    31.134326 
    7400    304.08277   -202.29357    30066.069   0.99498451   -9512.6929   -11324.612    1811.9195    31.095118    31.095118    31.095118 
    7450    308.28413    202.42807    29954.241   0.99869909   -9494.2745   -11331.228    1836.9539    31.056519    31.056519    31.056519 
    7500    306.95933    558.28457     29867.21    1.0016092   -9492.4428   -11321.503      1829.06    31.026412    31.026412    31.026412 
    7550    307.70468    357.20427    29818.439    1.0032474   -9507.4835   -11340.985    1833.5012    31.009515    31.009515    31.009515 
    7600    298.94587    616.30818    29802.113     1.003797   -9535.9131   -11317.224    1781.3106    31.003854    31.003854    31.003854 
    7650    298.98711    410.24609    29819.913    1.0031979   -9561.5919   -11343.148    1781.5563    31.010025    31.010025    31.010025 
    7700    296.00929    219.78055    29855.788    1.0019924   -9583.0151   -11346.828    1763.8126    31.022456    31.022456    31.022456 
    7750    292.89153    232.53887    29897.347    1.0005996   -9599.3701   -11344.605     1745.235    31.036844    31.036844    31.036844 
    7800    290.81879   -499.75847     29940.53   0.99915641   -9605.8151   -11338.699    1732.8843     31.05178     31.05178     31.05178 
    7850    299.48767   -1270.6675    29955.396   0.99866058   -9602.3555   -11386.895     1784.539    31.056918    31.056918    31.056918 
    7900    298.83326   -214.84519    29919.313   0.99986496   -9585.9365   -11366.576    1780.6396    31.044443    31.044443    31.044443 
    7950    299.72201     171.3074    29865.997    1.0016499   -9554.3983   -11340.334    1785.9353    31.025992    31.025992    31.025992 
    8000    307.53458    396.49836    29815.293    1.0033533   -9525.9497   -11358.437    1832.4876    31.008424    31.008424    31.008424 
    8050    310.27638    957.13501    29788.204    1.0042657   -9520.7357   -11369.561    1848.8251     30.99903     30.99903     30.99903 
    8100    304.87633    262.65201    29810.354    1.0035195   -9543.1644   -11359.812    1816.6481    31.006712    31.006712    31.006712 
    8150    297.92663   -34.974499    29852.448    1.0021045     -9577.91   -11353.147    1775.2373    31.021299    31.021299    31.021299 
    8200    298.14898   -638.18928    29887.366    1.0009337   -9601.7243   -11378.287    1776.5622     31.03339     31.03339     31.03339 
    8250    293.27136    109.60265    29896.139      1.00064   -9607.9456   -11355.444    1747.4982    31.036426    31.036426    31.036426 
    8300    295.31476    262.11864    29905.479    1.0003275   -9599.2977   -11358.972    1759.6741    31.039657    31.039657    31.039657 
    8350    295.52401    272.85189    29924.708   0.99968472   -9583.2869   -11344.208     1760.921    31.046309    31.046309    31.046309 
    8400    302.78333   -185.20917    29946.582   0.99895449   -9561.0602   -11365.237    1804.1766    31.053872    31.053872    31.053872 
    8450    307.21822    145.64497    29960.857   0.99847855   -9521.3915   -11351.994    1830.6026    31.058805    31.058805    31.058805 
    8500    304.35379    205.36483    29976.866   0.99794532   -9483.5291   -11297.064    1813.5344    31.064336    31.064336    31.064336 
    8550    305.65344    592.08701    30002.366   0.99709713   -9467.4749   -11288.753    1821.2786    31.073142    31.073142    31.073142 
    8600    302.77781   -39.499208    30056.928   0.99528712   -9458.7553   -11262.899    1804.1437    31.091967    31.091967    31.091967 
    8650    298.57111   -436.44273    30111.228   0.99349228   -9448.9507   -11228.028    1779.0775    31.110679    31.110679    31.110679 
    8700    299.69893    76.855118    30136.103   0.99267222   -9434.4763   -11220.274    1785.7978    31.119244    31.119244    31.119244 
    8750    307.44004   -355.11062    30147.427   0.99229937   -9418.0393   -11249.964    1831.9243    31.123141    31.123141    31.123141 
    8800    307.90899   -262.63416    30141.652   0.99248949   -9419.9047   -11254.623    1834.7186    31.121153    31.121153    31.121153 
    8850    301.80374    165.89129    30122.093   0.99313395    -9456.341   -11254.681    1798.3396     31.11442     31.11442     31.11442 
    8900    297.70096   -29.799113    30104.859   0.99370247   -9504.4926   -11278.385    1773.8926    31.108485    31.108485    31.108485 
    8950    301.71046    439.09951    30085.428   0.99434426   -9537.8866    -11335.67    1797.7838    31.101791    31.101791    31.101791 
    9000    299.07934    520.27278    30087.272   0.99428334   -9559.5166   -11341.623    1782.1059    31.102426    31.102426    31.102426 
    9050    302.53249    77.539027    30110.114   0.99352906   -9573.7119   -11376.394     1802.682    31.110295    31.110295    31.110295 
    9100    303.25211    412.94565    30144.848   0.99238427   -9589.2661   -11396.236      1806.97    31.122253    31.122253    31.122253 
    9150    303.78133   -263.48363    30201.849   0.99051131   -9610.2893   -11420.413    1810.1234    31.141857    31.141857    31.141857 
    9200    294.89476   -17.730119    30249.537   0.98894976   -9639.5596   -11396.731    1757.1715     31.15824     31.15824     31.15824 
    9250    296.23856    -266.8166    30285.689   0.98776927   -9656.4351   -11421.614    1765.1787    31.170647    31.170647    31.170647 
    9300    291.68133     211.9083    30309.756   0.98698494   -9651.0944   -11389.118    1738.0239    31.178902    31.178902    31.178902 
    9350     302.6956    -131.9843    30337.397   0.98608569   -9625.0829   -11428.737    1803.6539    31.188377    31.188377    31.188377 
    9400    297.85418   -60.123348    30369.457   0.98504471   -9565.1758   -11339.981    1774.8056    31.199359    31.199359    31.199359 
    9450     300.8352    288.93271    30401.241   0.98401487   -9519.6441   -11312.212    1792.5684     31.21024     31.21024     31.21024 
    9500     302.6048   -274.84278    30437.243   0.98285094   -9504.7088   -11307.822    1803.1128    31.222555    31.222555    31.222555 
    9550    300.59436   -981.03134    30451.472   0.98239169   -9501.5277   -11292.661    1791.1334    31.227419    31.227419    31.227419 
    9600    298.44334   -164.01253    30419.717   0.98341721   -9495.4132   -11273.729    1778.3162    31.216561    31.216561    31.216561 
    9650    304.06258    299.14014    30377.168   0.98479467   -9486.5746   -11298.374    1811.7992       31.202       31.202       31.202 
    9700    299.17558      366.974    30347.263   0.98576511   -9491.9091   -11274.588    1782.6794    31.191757    31.191757    31.191757 
    9750    304.66386     3.604291    30324.459   0.98650639   -9517.7432   -11333.125     1815.382    31.183943    31.183943    31.183943 
    9800    303.78353   -232.54306        30298   0.98736791   -9560.8326   -11370.969    1810.1365     31.17487     31.17487     31.17487 
    9850    302.63746    -23.80338    30265.874   0.98841595   -9592.2833   -11395.591    1803.3075    31.163848    31.163848    31.163848 
    9900     296.9991    289.15145    30240.942   0.98923085   -9608.1889   -11377.899    1769.7105    31.155288    31.155288    31.155288 
    9950    295.31269   -274.10418    30227.537   0.98966956   -9610.8987    -11370.56    1759.6618    31.150684    31.150684    31.150684 
SHAKE stats (type/ave/delta) on step 10000
  1 0.957192 1.33694e-06
  1 104.52 0.000137479
   10000    301.10587   -454.81456    30200.048   0.99057036   -9608.5707   -11402.752    1794.1813    31.141238    31.141238    31.141238 
   10050    296.26225   -12.203771    30154.327   0.99207232   -9604.5256   -11369.846    1765.3199    31.125515    31.125515    31.125515 
   10100    297.90094    159.27673    30103.603   0.99374393   -9599.0727   -11374.157    1775.0843    31.108053    31.108053    31.108053 
   10150    297.25556    49.772005    30050.171    0.9955109   -9582.1978   -11353.436    1771.2387    31.089637    31.089637    31.089637 
   10200    303.86098   -55.527605    29995.552   0.99732363   -9538.1038   -11348.702    1810.5979    31.070789    31.070789    31.070789 
   10250    309.24403    1181.6413    29952.678   0.99875119   -9495.3203   -11337.994    1842.6736    31.055979    31.055979    31.055979 
   10300    315.00079    1515.5486    29965.777   0.99831461    -9493.781   -11370.757    1876.9761    31.060505    31.060505    31.060505 
   10350    303.54903      252.138     30050.04   0.99551524   -9526.8515   -11335.591    1808.7392    31.089592    31.089592    31.089592 
   10400    292.44361   -174.28901    30159.469   0.99190318   -9553.2722   -11295.838     1742.566    31.127284    31.127284    31.127284 
   10450    296.56163   -220.90058    30258.508   0.98865657   -9553.0753   -11320.179    1767.1038    31.161319    31.161319    31.161319 
   10500    299.86107   -861.02418    30335.274   0.98615471    -9546.186    -11332.95     1786.764    31.187649    31.187649    31.187649 
   10550    305.87142   -787.88424    30371.276   0.98498572   -9534.3819   -11356.959    1822.5775    31.199982    31.199982    31.199982 
   10600    301.96362   -192.22146    30368.951   0.98506113   -9522.0495   -11321.342    1799.2923    31.199186    31.199186    31.199186 
   10650    298.18007   -60.597285    30352.408   0.98559801   -9505.9616   -11282.709    1776.7475     31.19352     31.19352     31.19352 
   10700    301.38161   -16.474734    30325.452   0.98647409   -9463.9634   -11259.788    1795.8243    31.184283    31.184283    31.184283 
   10750    315.53792    197.71061    30297.518    0.9873836   -9421.4845   -11301.661    1880.1766    31.174705    31.174705    31.174705 
   10800    307.14784    672.30724    30292.643   0.98754252   -9413.4874   -11243.671    1830.1832    31.173033    31.173033    31.173033 
   10850    307.37199   -349.80969     30318.07   0.98671429   -9430.9434   -11262.462    1831.5188    31.181752    31.181752    31.181752 
   10900    302.76911   -543.42759    30331.396   0.98628077   -9462.0499   -11266.142    1804.0919     31.18632     31.18632     31.18632 
   10950    300.75419   -1015.2338    30309.415   0.98699604   -9487.8919   -11279.978    1792.0857    31.178785    31.178785    31.178785 
   11000    304.71885   -400.08192    30241.843   0.98920139   -9505.1127   -11320.822    1815.7097    31.155597    31.155597    31.155597 
   11050    296.71477   -124.96061    30152.954   0.99211748   -9518.3576   -11286.374    1768.0163    31.125043    31.125043    31.125043 
   11100    298.21446   -40.504348    30054.249   0.99537583   -9523.2572    -11300.21    1776.9524    31.091043    31.091043    31.091043 
   11150    295.20192    392.36867    29956.184   0.99863431   -9523.6134   -11282.615    1759.0018     31.05719     31.05719     31.05719 
   11200    307.05446    200.46381    29872.594    1.0014287   -9530.4443   -11360.071    1829.6268    31.028276    31.028276    31.028276 
   11250    300.15554    421.09848    29799.687    1.0038788    -9554.698   -11343.217    1788.5186    31.003013    31.003013    31.003013 
   11300    308.24606    820.72545     29743.92    1.0057609   -9585.7476   -11422.475    1836.7271    30.983661    30.983661    30.983661 
   11350    305.96198    400.27731    29728.763    1.0062737   -9613.8817   -11436.999    1823.1171    30.978397    30.978397    30.978397 
   11400     295.7484    878.78133    29749.053    1.0055874   -9624.9066   -11387.165     1762.258    30.985444    30.985444    30.985444 
   11450    301.50856    263.39886    29806.936    1.0036346   -9624.9227   -11421.503    1796.5808    31.005526    31.005526    31.005526 
   11500    294.01775   -323.13045    29875.315    1.0013375   -9620.3895   -11372.335    1751.9457    31.029218    31.029218    31.029218 
   11550     299.4542   -748.80986    29924.245   0.99970018   -9596.8259   -11381.166    1784.3396    31.046149    31.046149    31.046149 
   11600    301.00038   -427.57508    29942.288   0.99909775   -9561.6227   -11355.175    1793.5527    31.052387    31.052387    31.052387 
   11650    302.08086   -294.50579    29937.084   0.99927143   -9530.7975   -11330.788    1799.9909    31.050588    31.050588    31.050588 
   11700    300.24898   -492.18433    29917.802   0.99991545   -9512.9829   -11302.058    1789.0754    31.043921    31.043921    31.043921 
   11750    304.95273    33.041588    29879.949    1.0011822     -9507.02   -11324.123    1817.1033    31.030822    31.030822    31.030822 
   11800    306.40154    664.16193    29846.697    1.0022976   -9512.6402   -11338.376    1825.7363    31.019307    31.019307    31.019307 
   11850    305.14747    241.11795    29845.744    1.0023296   -9533.5252   -11351.789    1818.2637    31.018977    31.018977    31.018977 
   11900    300.50504    130.06341    29864.492    1.0017004    -9560.031   -11350.632    1790.6011    31.025471    31.025471    31.025471 
   11950    295.80643    498.43175    29887.193    1.0009395   -9580.7211   -11343.325    1762.6038     31.03333     31.03333     31.03333 
   12000    296.03251    314.42433    29918.142    0.9999041   -9591.9613   -11355.912    1763.9509    31.044038    31.044038    31.044038 
   12050    296.60107   -75.019988    29953.652   0.99871872   -9597.4451   -11364.784    1767.3388    31.056315    31.056315    31.056315 
   12100    294.37422   -62.697147    29985.199   0.99766797   -9593.1971   -11347.267    1754.0698    31.067214    31.067214    31.067214 
   12150    295.32334   -615.58256    30005.459   0.99699436   -9585.6251    -11345.35    1759.7253     31.07421     31.07421     31.07421 
   12200    297.25065   -478.31639    29994.384   0.99736246   -9568.2472   -11339.457    1771.2094    31.070386    31.070386    31.070386 
   12250    299.75701    97.277391    29957.152   0.99860204   -9547.4816   -11333.625    1786.1439    31.057525    31.057525    31.057525 
   12300    301.55156    487.54179     29926.42   0.99962753   -9535.2585   -11332.095     1796.837    31.046901    31.046901    31.046901 
   12350    301.11849   -185.39713    29911.126    1.0001387   -9531.0446   -11325.301    1794.2564    31.041611    31.041611    31.041611 
   12400    296.61575   -97.816931    29889.067    1.0008768   -9542.5426   -11309.969    1767.4262    31.033978    31.033978    31.033978 
   12450    301.22972   -410.95952     29857.98    1.0019189   -9579.3699   -11374.289    1794.9193    31.023215    31.023215    31.023215 
   12500    292.97549     6.992496    29818.807    1.0032351   -9622.2991   -11368.034    1745.7353    31.009642    31.009642    31.009642 
   12550     287.5981   -547.09052    29776.105    1.0046738   -9642.9299   -11356.623    1713.6933    30.994833    30.994833    30.994833 
   12600    298.88393   -490.93635    29707.831    1.0069827   -9639.8353   -11420.777    1780.9415    30.971125    30.971125    30.971125 
   12650    297.44703    200.55704     29624.64    1.0098105   -9615.3298   -11387.709    1772.3796    30.942189    30.942189    30.942189 
   12700    304.04355    299.07947    29552.558    1.0122736    -9580.956   -11392.642    1811.6858    30.917072    30.917072    30.917072 
   12750    304.21313     437.4229    29503.862    1.0139443   -9557.8864   -11370.583    1812.6963    30.900081    30.900081    30.900081 
   12800    308.79788    740.30657    29483.461    1.0146459   -9553.2585   -11393.274    1840.0152    30.892958    30.892958    30.892958 
   12850    305.81594     180.2464    29499.058    1.0141094    -9567.458   -11389.705    1822.2469    30.898404    30.898404    30.898404 
   12900    302.35462    476.90151    29533.045    1.0129424   -9589.6678    -11391.29    1801.6221    30.910266    30.910266    30.910266 
   12950    294.05191    43.516867    29589.005    1.0110267   -9606.7996   -11358.949    1752.1493    30.929777    30.929777    30.929777 
   13000    301.20714    226.88219    29650.405     1.008933   -9612.2039   -11406.989    1794.7847    30.951156    30.951156    30.951156 
   13050    298.77706    698.24387    29728.968    1.0062668   -9615.3076   -11395.612    1780.3047    30.978469    30.978469    30.978469 
   13100    304.65035    -10.06587    29837.594    1.0026034    -9620.568    -11435.87    1815.3015    31.016153    31.016153    31.016153 
   13150    292.57406   -482.30774    29949.359   0.99886188   -9625.4466    -11368.79    1743.3433    31.054831    31.054831    31.054831 
   13200    302.38877   -1084.2535    30027.456   0.99626398   -9620.3869   -11422.212    1801.8256    31.081801    31.081801    31.081801 
   13250    304.72829   -65.696218    30055.938    0.9953199   -9615.4167   -11431.183    1815.7659    31.091625    31.091625    31.091625 
   13300    292.25754    378.97378    30073.693   0.99473227   -9616.6005   -11358.058    1741.4573    31.097747    31.097747    31.097747 
   13350    301.69093   -663.90681    30088.064   0.99425715   -9614.5468   -11412.214    1797.6675    31.102699    31.102699    31.102699 
   13400    296.96339     539.9432    30077.206    0.9946161   -9606.0459   -11375.544    1769.4977    31.098957    31.098957    31.098957 
   13450    304.03126    25.572284    30082.758   0.99443252   -9582.0557   -11393.668    1811.6126    31.100871    31.100871    31.100871 
   13500    301.31242    61.461324     30091.59   0.99414065   -9559.5131   -11354.925     1795.412    31.103914    31.103914    31.103914 
   13550      300.821   -495.48095    30091.129   0.99415587   -9540.1764    -11332.66    1792.4838    31.103756    31.103756    31.103756 
   13600    303.74145   -871.42124    30063.805   0.99505944   -9516.5658   -11326.452    1809.8857    31.094338    31.094338    31.094338 
   13650    310.45931   -71.682019    30007.438   0.99692861    -9495.618   -11345.533     1849.915    31.074893    31.074893    31.074893 
   13700    308.87105   -19.673159    29958.513   0.99855665   -9486.8824   -11327.334    1840.4512    31.057995    31.057995    31.057995 
   13750    311.58572    357.20158     29921.23    0.9998009   -9498.8954   -11355.522    1856.6269    31.045106    31.045106    31.045106 
   13800     293.4265    571.59741     29903.76     1.000385    -9551.338   -11299.761    1748.4227    31.039063    31.039063    31.039063 
   13850    290.84684    153.23425    29904.783    1.0003508   -9589.1272   -11322.179    1733.0514    31.039417    31.039417    31.039417 
   13900    300.01708   -307.61282    29904.713    1.0003531   -9592.7547   -11380.448    1787.6935    31.039393    31.039393    31.039393 
   13950    300.52073    696.25977    29896.376    1.0006321   -9589.4152    -11380.11    1790.6946    31.036508    31.036508    31.036508 
   14000      306.997    367.91701    29912.184    1.0001033   -9589.0804   -11418.365    1829.2844    31.041977    31.041977    31.041977 
   14050    303.54906    130.98256    29947.733   0.99891612   -9607.2325   -11415.972    1808.7394    31.054269    31.054269    31.054269 
   14100    298.58264    33.703212    29991.817   0.99744782   -9644.2633    -11423.41    1779.1462      31.0695      31.0695      31.0695 
   14150    293.05378   -365.79294    30036.046   0.99597905   -9671.3003   -11417.502    1746.2018    31.084765    31.084765    31.084765 
   14200    297.76401   -369.89391    30065.173   0.99501415   -9670.3439   -11444.612    1774.2683     31.09481     31.09481     31.09481 
   14250     303.6531    533.74217    30082.889   0.99442819   -9662.6175   -11471.977    1809.3593    31.100916    31.100916    31.100916 
   14300    293.13938    281.40524    30128.195    0.9929328   -9659.0672   -11405.779    1746.7118    31.116521    31.116521    31.116521 
   14350    293.32638   -161.96113    30182.932    0.9911321    -9650.485   -11398.311    1747.8261    31.135354    31.135354    31.135354 
   14400    297.52515   -502.35638    30220.951   0.98988523   -9633.7225   -11406.568     1772.845    31.148421    31.148421    31.148421 
   14450    301.27392    295.25866    30234.053   0.98945627   -9617.2504   -11412.433    1795.1826    31.152922    31.152922    31.152922 
   14500    300.02246   -409.07152    30253.997   0.98880399   -9599.2991   -11387.025    1787.7256    31.159771    31.159771    31.159771 
   14550    299.85003   -750.62792    30259.393   0.98862767   -9582.3991   -11369.097    1786.6982    31.161623    31.161623    31.161623 
   14600    298.16911   -647.82042     30227.95   0.98965603   -9571.9005   -11348.583    1776.6822    31.150826    31.150826    31.150826 
   14650    298.08256   -23.802701    30161.749   0.99182819   -9559.8716   -11336.038    1776.1665    31.128068    31.128068    31.128068 
   14700     297.8945    234.09949    30086.757   0.99430035   -9541.6863   -11316.732    1775.0459    31.102249    31.102249    31.102249 
   14750    300.91642    5.7436473    30020.461   0.99649613   -9498.2612   -11291.314    1793.0524    31.079387    31.079387    31.079387 
   14800    311.66589    45.208204    29956.989   0.99860747   -9450.5483   -11307.653    1857.1046    31.057468    31.057468    31.057468 
   14850    301.74848    1012.8342    29907.879    1.0002472   -9433.1973   -11231.208    1798.0104    31.040488    31.040488    31.040488 
   14900    308.42929    772.44641    29908.467    1.0002276    -9432.285   -11270.104    1837.8189    31.040691    31.040691    31.040691 
   14950    304.83169    356.52815    29953.658    0.9987185   -9453.5947   -11269.977    1816.3821    31.056317    31.056317    31.056317 
   15000    298.13425   -194.85752    30021.913   0.99644792   -9485.5545   -11262.029    1776.4744    31.079889    31.079889    31.079889 
   15050      298.006    18.076583    30082.386   0.99444481   -9508.5199    -11284.23    1775.7103    31.100743    31.100743    31.100743 
   15100     292.3953   -83.683991    30136.281   0.99266638   -9518.5401   -11260.818    1742.2781    31.119305    31.119305    31.119305 
   15150    304.63352    -555.9993    30179.001   0.99126121   -9518.7068   -11333.908    1815.2013    31.134002    31.134002    31.134002 
   15200    301.46374    190.23418    30199.586   0.99058553   -9525.2924   -11321.606    1796.3137    31.141079    31.141079    31.141079 
   15250    298.92426   -168.56209    30220.005    0.9899162   -9542.7387   -11323.921    1781.1819    31.148097    31.148097    31.148097 
   15300    296.25319   -447.50838    30223.214    0.9898111   -9566.6596   -11331.925    1765.2659    31.149199    31.149199    31.149199 
   15350    293.88448   -125.82512    30193.946   0.99077055   -9581.9662   -11333.118    1751.1516    31.139141    31.139141    31.139141 
   15400    294.52577   -95.643323    30146.595   0.99232674   -9583.3921   -11338.365    1754.9729    31.122855    31.122855    31.122855 
   15450    307.99159   -126.56742    30087.812    0.9942655   -9582.5054   -11417.716    1835.2108    31.102612    31.102612    31.102612 
   15500     296.4201     370.8526    30027.158   0.99627388   -9590.5092    -11356.77    1766.2604    31.081698    31.081698    31.081698 
   15550    299.95147    184.83833    29979.797   0.99784773   -9593.1935   -11380.496    1787.3026    31.065349    31.065349    31.065349 
   15600     295.8556    420.92885    29946.277   0.99896466   -9592.6594   -11355.556    1762.8968    31.053766    31.053766    31.053766 
   15650    304.69872    20.577355    29932.324   0.99943035   -9594.3594   -11409.949    1815.5898    31.048942    31.048942    31.048942 
   15700    303.69348    167.15142    29931.077   0.99947197   -9598.7819   -11408.382    1809.5999    31.048511    31.048511    31.048511 
   15750    295.07502    209.66965    29943.033   0.99907289   -9612.3743    -11370.62    1758.2456    31.052645    31.052645    31.052645 
   15800    298.16427   -213.58314    29963.562   0.99838842   -9623.4567    -11400.11    1776.6534     31.05974     31.05974     31.05974 
   15850    303.93961   -368.94937    29971.756   0.99811546   -9634.0865   -11445.153    1811.0665    31.062571    31.062571    31.062571 
   15900    297.31621    -173.6484    29962.312   0.99843007   -9644.9225   -11416.523    1771.6001    31.059308    31.059308    31.059308 
   15950    297.46682   -90.670485    29934.329    0.9993634    -9653.033   -11425.531    1772.4975    31.049636    31.049636    31.049636 
   16000    296.98041   -248.18416    29892.908    1.0007482   -9660.7527   -11430.352    1769.5991    31.035308    31.035308    31.035308 
   16050    298.39836     -350.328    29840.019    1.0025219   -9660.5373   -11438.585    1778.0482    31.016993    31.016993    31.016993 
   16100    290.56997     731.9712    29774.046    1.0047433   -9651.4637   -11382.865    1731.4017    30.994118    30.994118    30.994118 
   16150    303.15058    435.38428    29737.606    1.0059745    -9622.709   -11429.074    1806.3649    30.981469    30.981469    30.981469 
   16200    301.10278    737.46953    29734.094    1.0060933   -9588.4927   -11382.656    1794.1629    30.980249    30.980249    30.980249 
   16250    309.30075    559.95821    29761.547    1.0051652   -9570.7677   -11413.779    1843.0116    30.989781    30.989781    30.989781 
   16300    300.59988     578.8222    29817.539    1.0032777   -9578.9601   -11370.126    1791.1663    31.009202    31.009202    31.009202 
   16350    294.53561    142.29907    29896.298    1.0006347   -9597.5485    -11352.58    1755.0315    31.036481    31.036481    31.036481 
   16400    301.10371   -383.80622    29973.931   0.99804302   -9619.0678   -11413.236    1794.1684    31.063322    31.063322    31.063322 
   16450    298.75669    229.43277    30040.025   0.99584712   -9643.0399   -11423.223    1780.1833    31.086138    31.086138    31.086138 
   16500    297.75861   -372.97695    30108.195   0.99359237   -9682.1757   -11456.412    1774.2362    31.109634    31.109634    31.109634 
   16550    290.79415   -1122.1795    30150.048   0.99221309   -9738.0274   -11470.765    1732.7374    31.124043    31.124043    31.124043 
   16600    292.97288   -692.51902    30142.523   0.99246081   -9749.8835   -11495.603    1745.7197    31.121453    31.121453    31.121453 
   16650    298.35624   -899.88911    30098.545   0.99391092   -9729.7042   -11507.501    1777.7972     31.10631     31.10631     31.10631 
   16700    298.61486    126.64049    30016.063   0.99664212   -9708.5041   -11487.842    1779.3382     31.07787     31.07787     31.07787 
   16750    295.22966    455.27128    29934.678   0.99935176   -9687.9157   -11447.083    1759.1671    31.049756    31.049756    31.049756 
   16800    300.25131    240.95752    29873.958     1.001383   -9663.2054   -11452.295    1789.0893    31.028748    31.028748    31.028748 
   16850    300.57908    341.30276    29831.829    1.0027971    -9640.973   -11432.015    1791.0423    31.014155    31.014155    31.014155 
   16900    299.35941    147.40398    29811.422    1.0034836   -9622.9919   -11406.767    1783.7748    31.007082    31.007082    31.007082 
   16950    290.17094    622.29947    29805.312    1.0036893   -9612.2517   -11341.276    1729.0239    31.004963    31.004963    31.004963 
   17000    295.43539    635.60659    29821.489    1.0031448   -9601.3703   -11361.763    1760.3929    31.010572    31.010572    31.010572 
   17050     304.9188   -274.48408    29862.209     1.001777   -9592.1103   -11409.011    1816.9012     31.02468     31.02468     31.02468 
   17100    298.00573     14.99884    29899.316    1.0005337    -9591.349   -11367.058    1775.7086    31.037525    31.037525    31.037525 
   17150    297.71968   -314.70823    29930.966   0.99947568   -9586.4497   -11360.454    1774.0042    31.048473    31.048473    31.048473 
   17200    299.15943   -677.55026    29940.651    0.9991524   -9573.1761   -11355.759    1782.5832    31.051821    31.051821    31.051821 
   17250    305.08525   -306.87256     29918.37   0.99989649   -9523.9133   -11341.806     1817.893    31.044117    31.044117    31.044117 
   17300    311.05988    8.0565537     29874.47    1.0013658    -9467.437   -11320.931    1853.4936    31.028926    31.028926    31.028926 
   17350     310.3437    804.07716    29835.372    1.0026781     -9454.51   -11303.736    1849.2261    31.015383    31.015383    31.015383 
   17400     311.3498   -257.91239    29829.195    1.0028857   -9473.5579   -11328.779    1855.2212    31.013243    31.013243    31.013243 
   17450    300.28696   -193.73115    29816.962    1.0032971   -9513.3941   -11302.696    1789.3017    31.009003    31.009003    31.009003 
   17500    295.05071    487.28496    29791.315    1.0041609   -9549.2052   -11307.306    1758.1008    31.000109    31.000109    31.000109 
   17550    297.52778   -1.2727304    29781.004    1.0045086   -9568.9717   -11341.832    1772.8607    30.996532    30.996532    30.996532 
   17600    304.19211   -48.927129    29770.556    1.0048611   -9588.3728   -11400.944    1812.5711    30.992907    30.992907    30.992907 
   17650    290.91276    189.75017    29758.882    1.0052553   -9605.1677   -11338.612    1733.4442    30.988855    30.988855    30.988855 
   17700    299.18655    8.3905344      29750.3    1.0055453   -9612.9745   -11395.719    1782.7448    30.985876    30.985876    30.985876 
   17750    292.92018   -33.491549    29742.984    1.0057926   -9617.9864   -11363.392    1745.4057    30.983336    30.983336    30.983336 
   17800    293.86072    209.14224    29738.122     1.005957   -9611.2939   -11362.304      1751.01    30.981648    30.981648    30.981648 
   17850     297.7766    615.06951    29742.893    1.0057957   -9577.0569     -11351.4    1774.3434    30.983305    30.983305    30.983305 
   17900    303.18983    129.95354    29762.922    1.0051188     -9531.43   -11338.029    1806.5988    30.990258    30.990258    30.990258 
   17950    312.83145   -60.748846    29788.582     1.004253   -9502.5172   -11366.567    1864.0498    30.999161    30.999161    30.999161 
   18000    306.42285    242.51298    29820.835    1.0031668   -9500.8538   -11326.717    1825.8632    31.010345    31.010345    31.010345 
   18050      303.085   -382.84046    29866.101    1.0016464   -9507.4132   -11313.387    1805.9742    31.026028    31.026028    31.026028 
   18100    304.00437   -543.87138    29899.458    1.0005289   -9522.9103   -11334.363    1811.4524    31.037574    31.037574    31.037574 
   18150    299.05997   -178.87715    29910.177    1.0001704   -9546.4457   -11328.436    1781.9905    31.041283    31.041283    31.041283 
   18200    296.75836    83.651797    29906.442    1.0002953   -9573.8706   -11342.147     1768.276    31.039991    31.039991    31.039991 
   18250    294.07349   -114.05572     29901.62    1.0004566    -9609.209   -11361.487    1752.2779    31.038322    31.038322    31.038322 
   18300    296.49579   -341.65704    29894.566    1.0006927   -9661.9548   -11428.666    1766.7114    31.035881    31.035881    31.035881 
   18350    285.75759   -233.73551    29876.814    1.0012872   -9695.4492   -11398.176    1702.7264    31.029737    31.029737    31.029737 
   18400    289.79299   -397.81776    29837.929    1.0025921   -9686.2308   -11413.003    1726.7719    31.016269    31.016269    31.016269 
   18450    293.89844    552.02627    29779.143    1.0045713   -9661.4693   -11412.704    1751.2348    30.995887    30.995887    30.995887 
   18500    295.54082    333.83911    29735.407    1.0060489   -9635.0951   -11396.116    1761.0212    30.980705    30.980705    30.980705 
   18550    306.62627    337.03717    29703.796    1.0071195   -9615.9761   -11443.051    1827.0753    30.969723    30.969723    30.969723 
   18600    300.19262    52.402122    29696.971     1.007351   -9603.1234   -11391.863    1788.7396    30.967351    30.967351    30.967351 
   18650    302.88426   -104.51237    29703.756    1.0071209   -9591.1222     -11395.9    1804.7781    30.969709    30.969709    30.969709 
   18700    303.59103   -15.941267    29709.376    1.0069304   -9579.8044   -11388.794    1808.9894    30.971662    30.971662    30.971662 
   18750    299.16438    359.67658    29719.826    1.0065763   -9575.6036   -11358.216    1782.6126    30.975293    30.975293    30.975293 
   18800     299.7358   -57.782747    29748.996    1.0055893   -9578.8459   -11364.863    1786.0175    30.985424    30.985424    30.985424 
   18850    300.09055   -829.22608    29778.849    1.0045812   -9591.9988    -11380.13    1788.1313    30.995785    30.995785    30.995785 
   18900    292.96382   -398.64799    29778.036    1.0046087   -9609.9579   -11355.624    1745.6657    30.995503    30.995503    30.995503 
   18950    294.38691   -597.00862    29743.778    1.0057657   -9616.6646    -11370.81    1754.1454    30.983612    30.983612    30.983612 
   19000    298.89945   -25.731073    29678.659    1.0079725   -9605.1116   -11386.146     1781.034    30.960984    30.960984    30.960984 
   19050    302.37218    376.26902    29609.496     1.010327   -9580.0977   -11381.824    1801.7268    30.936915    30.936915    30.936915 
   19100    306.18706     129.0752    29549.269    1.0123862   -9564.3345   -11388.793    1824.4582    30.915925    30.915925    30.915925 
   19150    301.50501    150.18313    29493.182    1.0143115   -9569.0974   -11365.657    1796.5596    30.896352    30.896352    30.896352 
   19200    306.00184    248.80312    29441.421    1.0160947   -9591.7358    -11415.09    1823.3546    30.878267    30.878267    30.878267 
   19250    301.74696    297.91576    29405.026    1.0173524   -9635.1241   -11433.125    1798.0013    30.865538    30.865538    30.865538 
   19300    298.13949   -109.83866    29386.806    1.0179832    -9675.881   -11452.387    1776.5057    30.859162    30.859162    30.859162 
   19350      294.512   -335.30034    29366.815    1.0186761   -9686.5758   -11441.467    1754.8908    30.852163    30.852163    30.852163 
   19400    294.78311    984.82651    29336.141    1.0197412   -9678.1916   -11434.698    1756.5062    30.841417    30.841417    30.841417 
   19450    299.15662    1114.7389    29350.168    1.0192539   -9666.6359   -11449.202    1782.5664    30.846332    30.846332    30.846332 
   19500    303.91577    146.90425    29420.223    1.0168269   -9655.9533   -11466.878    1810.9245    30.870855    30.870855    30.870855 
   19550    296.50437    61.633924    29508.206     1.013795   -9647.8124   -11414.575    1766.7626    30.901598    30.901598    30.901598 
   19600    297.44235   -70.455404    29602.304    1.0105725    -9619.978    -11392.33    1772.3517     30.93441     30.93441     30.93441 
   19650    302.87129    -158.9773    29695.251    1.0074093   -9567.1498   -11371.851    1804.7008    30.966753    30.966753    30.966753 
   19700    306.31348   -346.19974     29783.41    1.0044274   -9530.5132   -11355.725    1825.2115    30.997367    30.997367    30.997367 
   19750    304.50443   -284.20763    29855.329    1.0020078   -9526.0311   -11340.463    1814.4321    31.022297    31.022297    31.022297 
   19800      305.407   -295.25908    29909.152    1.0002046    -9537.596   -11357.406    1819.8101    31.040928    31.040928    31.040928 
   19850    302.82357   -105.73735    29946.297     0.998964   -9565.4113   -11369.828    1804.4164    31.053773    31.053773    31.053773 
   19900    300.77937   -8.1518309    29975.735   0.99798298   -9592.0997   -11384.335    1792.2358    31.063945    31.063945    31.063945 
   19950    306.52989   -25.812781     30012.64   0.99675578   -9608.5842   -11435.085    1826.5011    31.076689    31.076689    31.076689 
SHAKE stats (type/ave/delta) on step 20000
  1 0.95721 1.67366e-06
  1 104.52 0.000122303
   20000    298.52784   -60.606805    30058.215   0.99524448    -9628.193   -11407.013    1778.8197    31.092411    31.092411    31.092411 
   20050    289.45941   -837.42748    30092.254   0.99411873   -9642.0682   -11366.852    1724.7842    31.104143    31.104143    31.104143 
   20100    296.58854   -1036.6756    30075.034   0.99468792    -9641.344   -11408.608    1767.2641    31.098209    31.098209    31.098209 
   20150    295.60508   -376.71383    30005.638    0.9969884    -9629.918   -11391.322     1761.404    31.074271    31.074271    31.074271 
   20200    300.86966   -451.16914    29910.999    1.0001429   -9599.0417   -11391.816    1792.7738    31.041567    31.041567    31.041567 
   20250    306.19918    387.95553    29801.094    1.0038314   -9539.4232   -11363.954    1824.5305    31.003501    31.003501    31.003501 
   20300    309.01134    999.73257    29711.768    1.0068493   -9509.5883   -11350.875    1841.2871    30.972493    30.972493    30.972493 
   20350    304.67471     619.7802    29670.434     1.008252   -9517.9062   -11333.353    1815.4467    30.958124    30.958124    30.958124 
   20400    303.96509      690.385    29664.279    1.0084611   -9543.3337   -11354.552    1811.2183    30.955983    30.955983    30.955983 
   20450    306.02224     123.8034    29688.764    1.0076295   -9577.1937    -11400.67    1823.4762    30.964498    30.964498    30.964498 
   20500    297.69838   -297.02263    29722.519    1.0064851   -9607.9861   -11381.863    1773.8772    30.976228    30.976228    30.976228 
   20550     294.2854   -356.09374     29740.12    1.0058895   -9622.1619   -11375.702    1753.5405    30.982342    30.982342    30.982342 
   20600    304.68575    226.80883    29743.115    1.0057882   -9622.4877       -11438    1815.5125    30.983382    30.983382    30.983382 
   20650    295.29415    380.44782    29758.055    1.0052832   -9623.7063   -11383.258    1759.5513    30.988568    30.988568    30.988568 
   20700    302.10197    93.668782    29786.032     1.004339    -9626.447   -11426.564    1800.1167    30.998277    30.998277    30.998277 
   20750     301.9106    88.581487    29820.683     1.003172   -9631.7274   -11430.704    1798.9764    31.010292    31.010292    31.010292 
   20800    297.01605   -368.56136    29858.179    1.0019122   -9645.5511   -11415.363    1769.8115    31.023284    31.023284    31.023284 
   20850     299.3462   -280.25423    29884.666    1.0010242   -9667.0079   -11450.704     1783.696    31.032455    31.032455    31.032455 
   20900     298.6613   -669.73291    29896.659    1.0006226    -9692.832   -11472.447     1779.615    31.036606    31.036606    31.036606 
   20950    291.47251   -240.35903    29889.861    1.0008502   -9704.0691   -11440.849    1736.7796    31.034253    31.034253    31.034253 
   21000    298.15912   -503.89796    29873.209    1.0014081   -9687.2704   -11463.893    1776.6226    31.028489    31.028489    31.028489 
   21050    299.09023    91.578396     29839.27    1.0025471   -9647.0317   -11429.202    1782.1708    31.016734    31.016734    31.016734 
   21100    295.57593      527.206    29811.094    1.0034946   -9607.4686   -11368.699    1761.2304    31.006968    31.006968    31.006968 
   21150    308.28623    -73.45107    29804.914    1.0037027   -9585.9114   -11422.878    1836.9665    31.004825    31.004825    31.004825 
   21200    307.21964   -33.264917    29805.397    1.0036864    -9582.788   -11413.399     1830.611    31.004993    31.004993    31.004993 
   21250    305.38865   -190.93602    29810.166    1.0035259   -9590.4107   -11410.112    1819.7008    31.006646    31.006646    31.006646 
   21300    307.75856   -422.43386    29810.346    1.0035198   -9607.5769   -11441.399    1833.8223    31.006709    31.006709    31.006709 
   21350    295.22446   -138.62162    29798.716    1.0039115   -9635.6679   -11394.804    1759.1361    31.002676    31.002676    31.002676 
   21400    296.73872   -841.10992    29776.762    1.0046516   -9653.5021   -11421.661     1768.159    30.995061    30.995061    30.995061 
   21450    294.07968   -574.24414     29718.15    1.0066331   -9661.0563   -11413.371    1752.3148    30.974711    30.974711    30.974711 
   21500    302.83825    22.910885    29636.192    1.0094169   -9649.4027   -11453.907    1804.5039     30.94621     30.94621     30.94621 
   21550    300.62236   -4.3139516    29555.381    1.0121769   -9611.5505   -11402.851    1791.3002    30.918056    30.918056    30.918056 
   21600    309.97592    263.36316    29482.642    1.0146741   -9556.3841   -11403.419    1847.0347    30.892672    30.892672    30.892672 
   21650     305.1727    177.81166     29421.15    1.0167948   -9531.8637   -11350.278     1818.414    30.871179    30.871179    30.871179 
   21700    304.06852    926.74854    29372.898    1.0184651   -9532.4611   -11344.296    1811.8346    30.854293    30.854293    30.854293 
   21750    311.34366    1108.9157    29374.838    1.0183979   -9552.6466   -11407.831    1855.1846    30.854972    30.854972    30.854972 
   21800    311.23553    340.95696    29437.118    1.0162433   -9597.0372   -11451.577    1854.5403    30.876763    30.876763    30.876763 
   21850    301.75975    374.82054      29528.5    1.0130983   -9637.2958   -11435.373    1798.0775     30.90868     30.90868     30.90868 
   21900    296.26934   -219.70491     29634.42    1.0094773   -9655.1789   -11420.541    1765.3621    30.945593    30.945593    30.945593 
   21950    297.59085   -432.36029    29732.938    1.0061324   -9660.3263   -11433.563    1773.2366    30.979847    30.979847    30.979847 
   22000    293.84167   -237.75953    29813.911    1.0033998   -9653.7951   -11404.692    1750.8965    31.007945    31.007945    31.007945 
   22050    301.78124   -808.76438    29877.686     1.001258   -9629.5162   -11427.722    1798.2055    31.030039    31.030039    31.030039 
   22100    301.91383   -323.49038    29911.968    1.0001105   -9591.8024   -11390.798    1798.9956    31.041903    31.041903    31.041903 
   22150    308.51086   -336.34891    29932.115   0.99943733   -9559.4032   -11397.708    1838.3049     31.04887     31.04887     31.04887 
   22200    303.98286   -285.17144    29942.253   0.99909891    -9551.338   -11362.662    1811.3242    31.052375    31.052375    31.052375 
   22250    302.20774    575.88451    29942.043   0.99910592   -9560.8834    -11361.63    1800.7469    31.052303    31.052303    31.052303 
   22300    299.83572    108.85757    29952.599   0.99875383   -9584.9689   -11371.582    1786.6129    31.055951    31.055951    31.055951 
   22350    299.29789   -355.83049    29959.858   0.99851185   -9612.5047   -11395.913    1783.4082     31.05846     31.05846     31.05846 
   22400    303.62061   -230.39669    29946.914   0.99894344   -9634.7756   -11443.941    1809.1657    31.053986    31.053986    31.053986 
   22450     295.3134    777.77122    29927.335   0.99959695    -9652.923   -11412.589     1759.666    31.047217    31.047217    31.047217 
   22500    299.97677    177.56587     29939.29   0.99919782   -9660.2962    -11447.75    1787.4534    31.051351    31.051351    31.051351 
   22550     294.6887   -134.30162    29966.393   0.99829408   -9665.4584   -11421.402    1755.9437    31.060718    31.060718    31.060718 
   22600    294.06024    -740.2414     29981.98   0.99777509   -9661.8074   -11414.006    1752.1989    31.066102    31.066102    31.066102 
   22650     294.8683   -128.63478    29965.971   0.99830816   -9640.8328   -11397.847    1757.0139    31.060572    31.060572    31.060572 
   22700    295.58142   -109.70019    29941.912   0.99911032   -9596.0269    -11357.29     1761.263    31.052257    31.052257    31.052257 
   22750    296.78388    558.92734    29916.653   0.99995387    -9557.984   -11326.412    1768.4281    31.043523    31.043523    31.043523 
   22800    305.85686    184.54681     29913.58    1.0000566   -9546.5733   -11369.064    1822.4907     31.04246     31.04246     31.04246 
   22850    301.96849    194.06654    29928.178   0.99956881    -9549.884   -11349.205    1799.3213    31.047509    31.047509    31.047509 
   22900    306.50446   -198.93878    29949.038   0.99887259   -9572.0728   -11398.422    1826.3495     31.05472     31.05472     31.05472 
   22950    304.00689    263.51875    29965.493   0.99832407   -9606.0837   -11417.551    1811.4674    31.060407    31.060407    31.060407 
   23000    302.55952   -67.530751    29996.088    0.9973058   -9635.0209   -11437.864     1802.843    31.070974    31.070974    31.070974 
   23050    298.46552   -178.87708    30032.422   0.99609925   -9651.9072   -11430.356    1778.4484    31.083515    31.083515    31.083515 
   23100    291.90742   -215.43546    30064.771   0.99502746   -9651.1775   -11390.549     1739.371    31.094671    31.094671    31.094671 
   23150     296.4004   -172.77688    30086.022   0.99432464   -9627.6018   -11393.745    1766.1431    31.101996    31.101996    31.101996 
   23200    296.37824    489.44836    30095.935   0.99399712    -9596.907   -11362.918     1766.011    31.105411    31.105411    31.105411 
   23250    308.16345    694.48232    30122.547   0.99311898   -9582.1472   -11418.382    1836.2348    31.114577    31.114577    31.114577 
   23300    309.77216    335.46786    30183.343    0.9911186   -9590.2745   -11436.095    1845.8206    31.135495    31.135495    31.135495 
   23350    303.13236    47.555586    30266.395   0.98839895    -9604.893   -11411.149    1806.2564    31.164026    31.164026    31.164026 
   23400    296.46433   -135.26353    30353.371   0.98556674   -9614.6049   -11381.129     1766.524     31.19385     31.19385     31.19385 
   23450     299.3269   -965.34315    30430.319   0.98307457   -9610.7737   -11394.355     1783.581    31.220187    31.220187    31.220187 
   23500    297.44013   -361.42176    30469.032    0.9818255   -9601.5986   -11373.937    1772.3384    31.233421    31.233421    31.233421 
   23550    292.55529   -639.63315    30479.303   0.98149466    -9591.768   -11334.999    1743.2315     31.23693     31.23693     31.23693 
   23600    288.62895   -479.01671    30451.084   0.98240421   -9572.2469   -11292.083    1719.8358    31.227287    31.227287    31.227287 
   23650    308.63016   -427.52104    30387.195    0.9844697   -9532.0578   -11371.074    1839.0158    31.205432    31.205432    31.205432 
   23700    311.21094    271.86362    30306.564   0.98708891   -9502.2943   -11356.688    1854.3937    31.177807    31.177807    31.177807 
   23750     311.6043    217.95321    30242.489   0.98918024   -9500.3734   -11357.111    1856.7376     31.15582     31.15582     31.15582 
   23800    301.70354    398.54828    30195.492   0.99071982   -9538.0775    -11335.82    1797.7426    31.139672    31.139672    31.139672 
   23850    303.94134    220.55535    30168.471   0.99160719   -9606.5551   -11417.632    1811.0768    31.130381    31.130381    31.130381 
   23900    301.81388    369.52275    30162.811   0.99179326   -9632.4522   -11430.852       1798.4    31.128434    31.128434    31.128434 
   23950    297.04601    202.03003    30174.786   0.99139966   -9643.4911   -11413.481      1769.99    31.132553    31.132553    31.132553 
   24000     300.5631   -341.74071    30197.016   0.99066985   -9642.9322   -11433.879    1790.9471    31.140196    31.140196    31.140196 
   24050    295.00429    153.67487    30213.598   0.99012614   -9630.1603   -11387.984    1757.8242    31.145895    31.145895    31.145895 
   24100    303.23364    -147.8071    30227.447   0.98967251   -9605.6633   -11412.523    1806.8599    31.150653    31.150653    31.150653 
   24150    303.58165   -234.48453    30232.477   0.98950783   -9584.1266    -11393.06    1808.9336    31.152381    31.152381    31.152381 
   24200    302.59185    1.2205606     30231.81   0.98952968   -9563.5034   -11366.539    1803.0357    31.152152    31.152152    31.152152 
   24250    300.07389    145.33278    30232.044   0.98952202   -9539.1929   -11327.225    1788.0321    31.152232    31.152232    31.152232 
   24300    307.83595   -124.75008    30230.753   0.98956426   -9522.9362    -11357.22    1834.2834    31.151789    31.151789    31.151789 
   24350    304.19171   -226.01443    30221.061   0.98988162   -9515.5526   -11328.121    1812.5687    31.148459    31.148459    31.148459 
   24400    306.93145    152.67376    30199.862   0.99057647   -9516.9912   -11345.885    1828.8938    31.141174    31.141174    31.141174 
   24450    305.68902   -46.297465     30182.55   0.99114465   -9538.2746   -11359.765    1821.4906    31.135223    31.135223    31.135223 
   24500     299.9284   -581.92768    30166.325   0.99167775   -9582.3204   -11369.486    1787.1651    31.129642    31.129642    31.129642 
   24550    296.37776   -447.84148    30127.253   0.99296384   -9619.0705   -11385.079    1766.0082    31.116197    31.116197    31.116197 
   24600    301.80144   -670.20456    30063.944   0.99505485   -9635.0349   -11433.361    1798.3259    31.094386    31.094386    31.094386 
   24650    302.55911   -111.11352    29979.698   0.99785104   -9642.7839   -11445.624    1802.8406    31.065314    31.065314    31.065314 
   24700    296.94347    894.61099    29899.977    1.0005116   -9655.8515   -11425.231     1769.379    31.037754    31.037754    31.037754 
   24750    299.29408    419.20414    29859.265    1.0018757   -9671.1486   -11454.534    1783.3855     31.02366     31.02366     31.02366 
   24800    296.82795   -714.85733    29843.426    1.0024075   -9675.6411   -11444.332    1768.6907    31.018174    31.018174    31.018174 
   24850    281.88074   -64.008581    29806.834    1.0036381   -9662.4486   -11342.074    1679.6257    31.005491    31.005491    31.005491 
   24900    297.90954    381.36361    29759.823    1.0052235    -9605.262   -11380.397    1775.1355    30.989182    30.989182    30.989182 
   24950    309.66609    403.64588    29727.942    1.0063015   -9570.3395   -11415.528    1845.1885    30.978112    30.978112    30.978112 
   25000    304.90653    -9.407749    29718.881    1.0066083   -9568.0635   -11384.892     1816.828    30.974964    30.974964    30.974964 
   25050    300.45543    359.44395    29719.825    1.0065763   -9577.8009   -11368.106    1790.3055    30.975293    30.975293    30.975293 
   25100    293.85269    547.10791    29738.337    1.0059498    -9592.818    -11343.78    1750.9622    30.981722    30.981722    30.981722 
   25150    297.58482    115.37768    29770.757    1.0048543   -9610.6665   -11383.867    1773.2006    30.992977    30.992977    30.992977 
   25200    299.85262    186.20839    29805.769    1.0036739   -9628.9056   -11415.619    1786.7136    31.005122    31.005122    31.005122 
   25250    296.64121    274.04195    29848.401    1.0022404   -9650.5803   -11418.158     1767.578    31.019897    31.019897    31.019897 
   25300    294.32298   -421.73813    29898.717    1.0005537   -9674.7771   -11428.542    1753.7644    31.037318    31.037318    31.037318 
   25350    293.22932   -13.146389    29933.684   0.99938492   -9690.4072   -11437.655    1747.2477    31.049413    31.049413    31.049413 
   25400    300.77328   -553.17589    29957.829   0.99857945   -9698.4476   -11490.647    1792.1995    31.057759    31.057759    31.057759 
   25450    287.56779   -68.732483    29961.375   0.99846128   -9700.8797   -11414.392    1713.5127    31.058984    31.058984    31.058984 
   25500    299.84541   -163.96516     29952.28   0.99876446   -9675.7386   -11462.409    1786.6706    31.055841    31.055841    31.055841 
   25550    305.49432    210.22087    29938.737   0.99921626   -9635.9167   -11456.247    1820.3305     31.05116     31.05116     31.05116 
   25600    305.10397    15.459266     29937.36   0.99926223   -9611.6318   -11429.636    1818.0045    31.050684    31.050684    31.050684 
   25650    308.90079   -99.580836    29942.797   0.99908077   -9600.9722   -11441.601    1840.6284    31.052563    31.052563    31.052563 
   25700    304.46704    437.05514    29952.225   0.99876629   -9611.3681   -11425.577    1814.2093    31.055822    31.055822    31.055822 
   25750    298.45992    -40.94617    29983.135   0.99773666   -9629.9572   -11408.372     1778.415    31.066501    31.066501    31.066501 
   25800    293.47983    -389.0692    30016.586   0.99662477    -9653.955   -11402.695    1748.7404     31.07805     31.07805     31.07805 
   25850    295.16061    -65.08912    30037.569   0.99592855   -9676.3352   -11435.091    1758.7556     31.08529     31.08529     31.08529 
   25900    292.73824    351.39107     30060.06   0.99518341   -9694.3891   -11438.711    1744.3216    31.093047    31.093047    31.093047 
   25950     294.1519    293.32483     30095.12   0.99402405   -9706.7791   -11459.524    1752.7451     31.10513     31.10513     31.10513 
   26000     301.2571    242.92547    30142.314   0.99246769   -9708.9062   -11503.989    1795.0824    31.121381    31.121381    31.121381 
   26050    296.43366    282.46205    30210.525   0.99022683   -9695.5054   -11461.847    1766.3413    31.144839    31.144839    31.144839 
   26100    301.11312   -294.29309    30297.183   0.98739454   -9655.0792   -11449.304    1794.2245     31.17459     31.17459     31.17459 
   26150    300.84728   -242.63562    30373.545   0.98491214    -9616.167   -11408.807    1792.6404    31.200759    31.200759    31.200759 
   26200    305.63701   -804.58227    30431.959   0.98302159   -9594.2974   -11415.478    1821.1807    31.220748    31.220748    31.220748 
   26250    304.96133    -833.7007    30453.615   0.98232255   -9586.4296   -11403.584    1817.1546    31.228152    31.228152    31.228152 
   26300    301.83413   -483.69193    30435.226   0.98291606   -9586.6616   -11385.182    1798.5207    31.221865    31.221865    31.221865 
   26350    303.27281   -47.217707    30395.169   0.98421143   -9589.4582   -11396.552    1807.0933    31.208162    31.208162    31.208162 
   26400    305.39235   -112.39603    30351.731   0.98562001   -9601.8516   -11421.575    1819.7229    31.193288    31.193288    31.193288 
   26450    295.98017    5.8736494    30303.818   0.98717833   -9638.2011    -11401.84    1763.6391    31.176866    31.176866    31.176866 
   26500    293.98613   -213.14863    30253.256   0.98882821   -9682.7157   -11434.473    1751.7573    31.159516    31.159516    31.159516 
   26550    292.73682   -479.20939    30195.815   0.99070924   -9699.8625   -11444.176    1744.3131    31.139783    31.139783    31.139783 
   26600    298.19041   -134.12377    30119.951   0.99320458   -9694.7783   -11471.587    1776.8091    31.113683    31.113683    31.113683 
   26650    300.01779    294.62534    30044.122   0.99571134   -9680.1787   -11467.876    1787.6978    31.087551    31.087551    31.087551 
   26700    302.04513   -290.85411    29987.631   0.99758706   -9661.7213   -11461.499     1799.778    31.068054    31.068054    31.068054 
   26750    302.40279  -0.58897334    29931.591   0.99945481   -9642.4552   -11444.364    1801.9091    31.048689    31.048689    31.048689 
   26800    308.54476    704.86076    29884.267    1.0010375   -9627.1493   -11465.656    1838.5069    31.032317    31.032317    31.032317 
   26850     311.4857    1157.0737    29880.882    1.0011509   -9629.9489    -11485.98    1856.0309    31.031145    31.031145    31.031145 
   26900    302.18749     1078.967     29942.92   0.99907668   -9649.6778   -11450.304    1800.6262    31.052606    31.052606    31.052606 
   26950    295.89707    592.23048     30048.91   0.99555268   -9663.9738   -11427.118    1763.1439    31.089202    31.089202    31.089202 
   27000    302.19706   -437.90301    30162.414   0.99180634   -9669.1087   -11469.792    1800.6833    31.128297    31.128297    31.128297 
   27050    295.12227   -296.42121     30247.89   0.98900364   -9670.9057   -11429.433    1758.5272    31.157674    31.157674    31.157674 
   27100    297.87816    41.929593    30310.254   0.98696874   -9664.6034   -11439.552    1774.9485    31.179072    31.179072    31.179072 
   27150    295.95948   -561.30334    30361.945   0.98528842   -9643.7656   -11407.281    1763.5158    31.196787    31.196787    31.196787 
   27200     300.9858   -540.33648    30381.643   0.98464962   -9605.0396   -11398.505    1793.4658    31.203532    31.203532    31.203532 
   27250    303.63468   -199.00239    30371.359   0.98498303   -9572.0929   -11381.342    1809.2495     31.20001     31.20001     31.20001 
   27300    304.70721   -169.35978    30351.794   0.98561793   -9558.7848   -11374.425    1815.6404     31.19331     31.19331     31.19331 
   27350    303.05615    18.958553    30334.892   0.98616713   -9552.8979     -11358.7    1805.8023    31.187518    31.187518    31.187518 
   27400    307.67318   -509.37989    30322.277   0.98657737   -9550.3513   -11383.665    1833.3135    31.183195    31.183195    31.183195 
   27450     308.2643   -137.61325    30294.504   0.98748184    -9562.917   -11399.753    1836.8358    31.173671    31.173671    31.173671 
   27500    301.94563   -309.56866    30263.949   0.98847885   -9598.7505   -11397.936    1799.1851    31.163187    31.163187    31.163187 
   27550    293.04445   -288.05545    30222.568   0.98983225   -9653.2914   -11399.438    1746.1462    31.148977    31.148977    31.148977 
   27600    291.65827   -341.30584    30165.726   0.99169742   -9672.8022   -11410.689    1737.8864    31.129437    31.129437    31.129437 
   27650    296.41042       82.102    30093.931   0.99406333   -9666.9197   -11433.122    1766.2028    31.104721    31.104721    31.104721 
   27700    302.81189   -59.402775    30021.121   0.99647422   -9657.4995   -11461.846    1804.3468    31.079615    31.079615    31.079615 
   27750    305.69904    78.874039    29948.984   0.99887439   -9655.3548   -11476.905    1821.5503    31.054702    31.054702    31.054702 
   27800    295.89131    609.29482    29883.004    1.0010798   -9661.9308    -11425.04    1763.1096     31.03188     31.03188     31.03188 
   27850      293.562    767.96973    29848.636    1.0022325   -9665.8396    -11415.07    1749.2301    31.019979    31.019979    31.019979 
   27900    298.16588    472.72007    29849.309    1.0022099   -9660.7135   -11437.376    1776.6629    31.020212    31.020212    31.020212 
   27950    294.84977    308.97121    29872.204    1.0014418   -9639.4822   -11396.386    1756.9034    31.028141    31.028141    31.028141 
   28000    308.66225    399.96281    29910.346    1.0001647   -9596.9711   -11436.178     1839.207    31.041341    31.041341    31.041341 
   28050    300.69474     1126.543    29976.094   0.99797102   -9572.8688     -11364.6    1791.7315    31.064069    31.064069    31.064069 
   28100    301.37959    265.30503    30087.788   0.99426628   -9572.8845   -11368.697    1795.8123    31.102604    31.102604    31.102604 
   28150    299.26147   -597.27855    30208.785   0.99028387   -9580.8406   -11364.032    1783.1912    31.144241    31.144241    31.144241 
   28200    294.15643   -653.19815    30296.975   0.98740131   -9581.0298   -11333.802     1752.772    31.174519    31.174519    31.174519 
   28250    298.06689    -412.6644    30345.614   0.98581867    -9568.846   -11344.919    1776.0731    31.191192    31.191192    31.191192 
   28300     296.8647    216.72519    30368.168   0.98508652   -9539.0204    -11307.93    1768.9097    31.198918    31.198918    31.198918 
   28350    301.42438    356.01591    30383.516   0.98458891    -9502.545   -11298.624    1796.0792    31.204173    31.204173    31.204173 
   28400    303.86166    14.503762    30406.254   0.98385263   -9476.8362   -11287.438     1810.602    31.211955    31.211955    31.211955 
   28450    310.08351   -249.60567    30423.592   0.98329193     -9477.26   -11324.936    1847.6758    31.217887    31.217887    31.217887 
   28500    305.98332    250.16051    30425.754   0.98322208   -9515.5581   -11338.802    1823.2442    31.218626    31.218626    31.218626 
   28550    296.41882     -443.076    30429.506   0.98310083   -9554.9307   -11321.183    1766.2528    31.219909    31.219909    31.219909 
   28600    292.50106    356.32338    30416.352     0.983526   -9569.3195   -11312.228    1742.9083     31.21541     31.21541     31.21541 
   28650    305.18128    225.89722    30410.043   0.98373005   -9576.2511   -11394.716    1818.4651    31.213251    31.213251    31.213251 
   28700    309.58343   -838.62488    30418.665   0.98345121   -9583.4379   -11428.134     1844.696    31.216201    31.216201    31.216201 
   28750     296.6623   -683.39889    30402.973    0.9839588   -9594.6882   -11362.392    1767.7036    31.210832    31.210832    31.210832 
   28800     291.3152     11.33153    30358.102   0.98541313     -9594.87   -11330.712    1735.8422    31.195471    31.195471    31.195471 
   28850    304.49015   -98.377882    30300.602   0.98728314   -9577.9689   -11392.316     1814.347    31.175762    31.175762    31.175762 
   28900    302.68715    722.31342    30239.967   0.98926276   -9567.8943   -11371.498    1803.6036    31.154953    31.154953    31.154953 
   28950    305.85824    399.87246    30215.463   0.99006501   -9564.7246   -11387.224    1822.4989    31.146536    31.146536    31.146536 
   29000    293.19793   -303.04133    30210.772   0.99021875   -9575.2311   -11322.292    1747.0607    31.144924    31.144924    31.144924 
   29050    295.68167   -464.28904     30188.01   0.99096538   -9582.0171   -11343.878    1761.8604      31.1371      31.1371      31.1371 
   29100    302.46084   -189.03835    30141.009   0.99251066    -9585.515    -11387.77     1802.255    31.120932    31.120932    31.120932 
   29150     297.5827    -32.60622    30084.828   0.99436411   -9597.9611   -11371.149     1773.188    31.101584    31.101584    31.101584 
   29200    296.56241     -291.312    30019.924   0.99651395   -9610.4919     -11377.6    1767.1084    31.079202    31.079202    31.079202 
   29250    301.69705   -36.799266    29937.766   0.99924868   -9612.8806   -11410.584    1797.7039    31.050824    31.050824    31.050824 
   29300    297.28867    479.71351    29860.186    1.0018448   -9600.3833   -11371.819     1771.436    31.023979    31.023979    31.023979 
   29350     313.1227    248.19081    29802.296    1.0037909   -9580.5303   -11446.316    1865.7852    31.003918    31.003918    31.003918 
   29400    298.87072    856.13921    29768.751     1.004922   -9575.4973    -11356.36    1780.8628    30.992281    30.992281    30.992281 
   29450    296.80665    141.95075     29762.42    1.0051358    -9588.552   -11357.116    1768.5637    30.990084    30.990084    30.990084 
   29500    292.86611    -52.72907    29756.536    1.0053345   -9616.1426   -11361.226    1745.0835    30.988041    30.988041    30.988041 
   29550    294.15991    328.20469    29745.143    1.0057196   -9649.7135   -11402.506    1752.7928    30.984086    30.984086    30.984086 
   29600    296.63323   -94.320188    29745.016    1.0057239   -9674.1785   -11441.709    1767.5304    30.984042    30.984042    30.984042 
   29650    295.76425    135.87025    29744.924     1.005727   -9688.9993   -11451.352    1762.3525     30.98401     30.98401     30.98401 
   29700      296.426    329.93213    29751.295    1.0055116   -9694.8892   -11461.185    1766.2956    30.986222    30.986222    30.986222 
   29750    299.40565    307.57496    29771.372    1.0048335   -9694.2102   -11478.261    1784.0503     30.99319     30.99319     30.99319 
   29800    302.27062    575.94636    29804.823    1.0037058   -9695.9825   -11497.104    1801.1216    31.004794    31.004794    31.004794 
   29850    293.42829    243.07354    29866.538    1.0016318   -9705.3154   -11453.749    1748.4333    31.026179    31.026179    31.026179 
   29900    295.27465   -310.20993    29941.227   0.99913316     -9707.53   -11466.965    1759.4352    31.052021    31.052021    31.052021 
   29950    301.41603  -0.33424266    30004.876   0.99701372   -9692.1624   -11488.192    1796.0294    31.074008    31.074008    31.074008 
SHAKE stats (type/ave/delta) on step 30000
  1 0.957212 1.66273e-06
  1 104.52 0.000126853
   30000    299.33853    117.40304    30061.559   0.99513379   -9676.7985   -11460.449    1783.6504    31.093564    31.093564    31.093564 
   30050    299.32439   -346.39194    30116.999   0.99330192     -9654.25   -11437.816    1783.5661    31.112666    31.112666    31.112666 
   30100    304.91247   -78.890357    30162.023   0.99181918   -9624.2567    -11441.12    1816.8634    31.128163    31.128163    31.128163 
   30150    314.67142   -645.31032    30202.923   0.99047609   -9603.9473   -11478.961    1875.0135    31.142226    31.142226    31.142226 
   30200    307.02251     254.9435    30231.708   0.98953302   -9601.6951   -11431.132    1829.4364    31.152117    31.152117    31.152117 
   30250    303.93852   -230.37385     30274.87   0.98812224   -9610.9778   -11422.038      1811.06    31.166935    31.166935    31.166935 
   30300    295.44231   -224.58823    30312.977   0.98688007   -9636.8006   -11397.235    1760.4342    31.180006    31.180006    31.180006 
   30350    296.10287    -777.7922    30323.699   0.98653113   -9683.2048   -11447.575    1764.3702    31.183682    31.183682    31.183682 
   30400    292.77118   -1095.5243    30291.363   0.98758424   -9713.6534   -11458.171    1744.5179    31.172594    31.172594    31.172594 
   30450    294.62936   -863.20755    30208.186   0.99030351   -9710.5175   -11466.108    1755.5901    31.144035    31.144035    31.144035 
   30500    300.34132   -308.90847    30083.801   0.99439804    -9693.168   -11482.794    1789.6256     31.10123     31.10123     31.10123 
   30550    302.48321    307.26375    29950.785   0.99881431   -9674.6518    -11477.04    1802.3883    31.055324    31.055324    31.055324 
   30600    306.32737    815.86889    29846.448     1.002306   -9662.0525   -11487.347    1825.2943    31.019221    31.019221    31.019221 
   30650    302.33304    1498.0261     29801.05    1.0038329   -9655.3682   -11456.862    1801.4935    31.003485    31.003485    31.003485 
   30700    303.82537    1012.1222     29828.64    1.0029043   -9657.7604   -11468.146    1810.3858    31.013051    31.013051    31.013051 
   30750    296.83296   -307.74976    29894.369    1.0006993   -9666.8763   -11435.597    1768.7205    31.035813    31.035813    31.035813 
   30800    289.12518   -142.18115    29944.927   0.99900972   -9666.7219   -11389.515    1722.7927    31.053299    31.053299    31.053299 
   30850    297.24837   -571.86005    29973.412   0.99806029   -9649.5763   -11420.772    1771.1958    31.063143    31.063143    31.063143 
   30900    299.93595    -506.2164    29971.897   0.99811078   -9624.2489   -11411.459    1787.2102    31.062619    31.062619    31.062619 
   30950    300.17821    221.77467    29952.383   0.99876103   -9603.8601   -11392.514    1788.6537    31.055877    31.055877    31.055877 
   31000    296.07795    143.15908    29935.668   0.99931871   -9599.1932   -11363.415    1764.2217    31.050099    31.050099    31.050099 
   31050    289.52028     331.3579    29921.286   0.99979905   -9594.8085   -11319.955    1725.1469    31.045125    31.045125    31.045125 
   31100     299.3548   -493.36614    29908.808    1.0002162   -9585.1709   -11368.918    1783.7473    31.040809    31.040809    31.040809 
   31150    299.32961    201.75286    29883.403    1.0010665   -9576.2104   -11359.808    1783.5972    31.032018    31.032018    31.032018 
   31200    305.88151    334.91431    29864.501    1.0017001   -9568.8587   -11391.496    1822.6376    31.025474    31.025474    31.025474 
   31250    307.71715   -353.80652    29855.044    1.0020174   -9576.2127   -11409.788    1833.5755    31.022199    31.022199    31.022199 
   31300    297.75767   -86.469094    29834.662    1.0027019   -9609.5067   -11383.737    1774.2306    31.015137    31.015137    31.015137 
   31350    293.83223    370.97756    29811.687    1.0034747   -9654.4568   -11405.297    1750.8403    31.007174    31.007174    31.007174 
   31400     288.3488    145.27111    29802.292     1.003791   -9673.2367   -11391.403    1718.1665    31.003916    31.003916    31.003916 
   31450     292.9949     581.7514    29797.153    1.0039641   -9671.1202   -11416.971    1745.8509    31.002134    31.002134    31.002134 
   31500    296.31625    348.55761    29817.352     1.003284   -9652.7274   -11418.369    1765.6416    31.009138    31.009138    31.009138 
   31550    299.27858   -332.35215     29852.15    1.0021145   -9632.3017   -11415.595    1783.2931    31.021196    31.021196    31.021196 
   31600    297.81757   -295.31724    29870.337    1.0015044   -9620.6592   -11395.247    1774.5875    31.027494    31.027494    31.027494 
   31650    305.77005    101.33055    29874.511    1.0013645   -9618.2243   -11440.198    1821.9734     31.02894     31.02894     31.02894 
   31700    294.72385   -20.557645     29881.94    1.0011155   -9621.7736   -11377.927    1756.1531    31.031511    31.031511    31.031511 
   31750    296.94814   -143.41202     29883.85    1.0010515   -9620.8672   -11390.274    1769.4069    31.032173    31.032173    31.032173 
   31800    300.38724   -46.050576    29874.743    1.0013567   -9619.5751   -11409.474    1789.8992     31.02902     31.02902     31.02902 
   31850    295.50997    264.35917    29867.554    1.0015977   -9615.6216   -11376.459    1760.8373    31.026531    31.026531    31.026531 
   31900    302.97133   -162.39273    29866.739     1.001625   -9609.6387   -11414.936    1805.2969    31.026249    31.026249    31.026249 
   31950    299.82878   -383.28847    29857.199     1.001945   -9612.1014   -11398.673    1786.5716    31.022945    31.022945    31.022945 
   32000    296.21644    99.199313    29830.724    1.0028343   -9623.3722   -11388.419    1765.0469    31.013772    31.013772    31.013772 
   32050    304.74963    438.39881    29808.863    1.0035697   -9641.5929   -11457.486    1815.8931    31.006195    31.006195    31.006195 
   32100    290.31251    67.813532    29812.526    1.0034464    -9667.485   -11397.353    1729.8676    31.007465    31.007465    31.007465 
   32150    290.93375    273.54468    29821.556    1.0031426   -9684.9941   -11418.563    1733.5693    31.010595    31.010595    31.010595 
   32200    295.48721   -362.87288    29829.136    1.0028877   -9691.1848   -11451.886    1760.7017    31.013222    31.013222    31.013222 
   32250    293.26716   -477.01607    29817.191    1.0032895   -9690.0908   -11437.564    1747.4732    31.009082    31.009082    31.009082 
   32300    300.04607    80.844213    29785.995    1.0043402   -9663.4298   -11451.296    1787.8663    30.998264    30.998264    30.998264 
   32350    299.67898    385.18541    29760.658    1.0051953   -9623.2367   -11408.916     1785.679    30.989472    30.989472    30.989472 
   32400    303.73003    188.07761    29749.867    1.0055599   -9601.3773   -11411.195    1809.8177    30.985726    30.985726    30.985726 
   32450    300.65708    327.50414    29745.817    1.0056968   -9594.8075   -11386.315    1791.5071     30.98432     30.98432     30.98432 
   32500    295.15354    347.55992    29757.586     1.005299   -9594.7899   -11353.503    1758.7135    30.988406    30.988406    30.988406 
   32550    303.46121    54.294967    29788.067    1.0042704   -9581.9932   -11390.209    1808.2159    30.998983    30.998983    30.998983 
   32600    305.58656    573.52161     29828.16    1.0029205    -9558.357   -11379.237    1820.8801    31.012884    31.012884    31.012884 
   32650    314.21646     318.4594    29896.916     1.000614   -9524.2422   -11396.545    1872.3025    31.036695    31.036695    31.036695 
   32700    303.21085   -321.12856     29980.93   0.99781003   -9502.5904   -11309.314    1806.7241     31.06574     31.06574     31.06574 
   32750    298.52307   -482.86572    30043.912   0.99571831   -9488.2039   -11266.995    1778.7913    31.087478    31.087478    31.087478 
   32800    313.79156   -608.32068    30074.978   0.99468975   -9478.4409   -11348.212    1869.7707     31.09819     31.09819     31.09819 
   32850    306.12005    62.307943     30089.14   0.99422158   -9482.7071   -11306.766     1824.059     31.10307     31.10307     31.10307 
   32900    303.64723    289.71288    30111.933   0.99346904   -9505.0291   -11314.353    1809.3243    31.110922    31.110922    31.110922 
   32950    295.88965    647.39541    30151.475   0.99216617    -9546.462   -11309.562    1763.0997    31.124534    31.124534    31.124534 
   33000    296.80855    85.533038    30216.374   0.99003515   -9580.3837   -11348.959    1768.5751    31.146849    31.146849    31.146849 
   33050    294.62761    -408.6067    30281.702   0.98789931   -9592.5949   -11348.175    1755.5797    31.169279    31.169279    31.169279 
   33100    298.13652   -983.34601    30318.922   0.98668655   -9588.7433   -11365.231     1776.488    31.182044    31.182044    31.182044 
   33150    290.93856   -545.84478    30307.913   0.98704497   -9576.3546   -11309.953    1733.5979     31.17827     31.17827     31.17827 
   33200    302.19959   -180.43675     30262.27   0.98853366   -9551.3816    -11352.08    1800.6984    31.162611    31.162611    31.162611 
   33250    301.34256   -504.47079     30203.48   0.99045781   -9528.9611   -11324.553    1795.5916    31.142418    31.142418    31.142418 
   33300     295.3805   -4.9596029    30125.371   0.99302587    -9507.515   -11267.581    1760.0658    31.115549    31.115549    31.115549 
   33350    306.98667    100.89024    30040.992   0.99581507   -9476.4851   -11305.708    1829.2228    31.086471    31.086471    31.086471 
   33400    313.67757    141.95117    29960.581   0.99848775   -9424.8168   -11293.908    1869.0915     31.05871     31.05871     31.05871 
   33450    311.46276    396.34861    29899.253    1.0005358   -9376.7329   -11232.627    1855.8942    31.037504    31.037504    31.037504 
   33500    311.78984    146.26612     29867.35    1.0016045   -9365.5738   -11223.417    1857.8432     31.02646     31.02646     31.02646 
   33550    317.24662    -780.4689    29843.025    1.0024209   -9388.3744   -11278.733    1890.3582    31.018035    31.018035    31.018035 
   33600    306.69792   -373.92653    29800.588    1.0038484   -9415.0212   -11242.523    1827.5023    31.003325    31.003325    31.003325 
   33650    312.74833     427.8711    29753.091    1.0054509   -9432.9889   -11296.543    1863.5545    30.986845    30.986845    30.986845 
   33700    308.70635    440.33491    29732.977    1.0061311   -9462.3594   -11301.829    1839.4698    30.979861    30.979861    30.979861 
   33750    304.45536    672.77864    29740.408    1.0058797   -9500.2155   -11314.355    1814.1396    30.982442    30.982442    30.982442 
   33800    304.09894   -17.647711    29771.317    1.0048354   -9532.1862   -11344.202    1812.0159    30.993171    30.993171    30.993171 
   33850    308.11172   -331.17844    29805.296    1.0036898   -9554.0884   -11390.015    1835.9266    31.004958    31.004958    31.004958 
   33900    298.33043    93.263992    29835.684    1.0026676   -9578.3828   -11356.026    1777.6434    31.015491    31.015491    31.015491 
   33950    299.47632     185.8374    29868.147    1.0015778   -9593.0973   -11377.569    1784.4714    31.026736    31.026736    31.026736 
   34000     300.0181   -229.79064    29901.698     1.000454   -9598.4057   -11386.105    1787.6996    31.038349    31.038349    31.038349 
   34050     297.2727   -590.43043    29922.088   0.99977224   -9599.4315   -11370.772    1771.3408    31.045403    31.045403    31.045403 
   34100    294.38296   -31.278703    29920.242   0.99983391    -9590.322   -11344.444    1754.1219    31.044764    31.044764    31.044764 
   34150    301.10944    71.738156     29916.34   0.99996434   -9557.8634   -11352.066    1794.2025    31.043415    31.043415    31.043415 
   34200    306.36827    514.00237    29916.763    0.9999502   -9516.1088   -11341.647     1825.538    31.043561    31.043561    31.043561 
   34250     309.8712    628.39364    29932.815   0.99941397    -9503.877   -11350.288    1846.4107    31.049112    31.049112    31.049112 
   34300    300.30262    773.36726    29980.061   0.99783896   -9522.1577   -11311.553     1789.395     31.06544     31.06544     31.06544 
   34350    298.53294   -253.72203    30055.748   0.99532618   -9549.2492   -11328.099    1778.8501     31.09156     31.09156     31.09156 
   34400     297.7377   -976.17578    30111.604    0.9934799   -9572.7687    -11346.88    1774.1115    31.110808    31.110808    31.110808 
   34450    295.36039   -625.76348    30116.081    0.9933322   -9583.3523   -11343.298     1759.946     31.11235     31.11235     31.11235 
   34500    290.87705    253.54656    30090.729   0.99416911   -9579.4358   -11312.667    1733.2314    31.103617    31.103617    31.103617 
   34550    304.06586   -611.59397    30067.219   0.99494644   -9557.9003   -11369.719    1811.8188    31.095515    31.095515    31.095515 
   34600    300.23978    160.16126     30031.92   0.99611588   -9550.5393    -11339.56    1789.0205    31.083342    31.083342    31.083342 
   34650    296.06426    633.25083    30008.437   0.99689542   -9554.2045   -11318.345    1764.1401    31.075238    31.075238    31.075238 
   34700    299.85132    645.11561    30009.487   0.99686053   -9556.0288   -11342.735    1786.7059      31.0756      31.0756      31.0756 
   34750    303.30348    56.328067    30034.968    0.9960148   -9568.5229   -11375.799     1807.276    31.084393    31.084393    31.084393 
   34800    303.53175   -131.19326    30063.924   0.99505551   -9589.8252   -11398.461    1808.6362    31.094379    31.094379    31.094379 
   34850    299.91102   -252.14867    30085.136   0.99435393   -9614.0345   -11401.096    1787.0616     31.10169     31.10169     31.10169 
   34900      295.862   -647.15857    30091.061   0.99415813   -9634.5109   -11397.446    1762.9349    31.103732    31.103732    31.103732 
   34950    286.60279    -304.6419    30069.295   0.99487776   -9642.8654   -11350.628    1707.7626    31.096231    31.096231    31.096231 
   35000    302.05369   -250.29313    30023.008   0.99641157   -9634.0424   -11433.871     1799.829    31.080267    31.080267    31.080267 
   35050    306.73548    904.61753    29975.642   0.99798607   -9621.5972   -11449.323    1827.7261    31.063913    31.063913    31.063913 
   35100      306.939     375.5311    29967.947   0.99824231   -9626.4261   -11455.365    1828.9388    31.061255    31.061255    31.061255 
   35150    302.12179     186.9653    29989.374   0.99752908   -9658.3093   -11458.544    1800.2348    31.068656    31.068656    31.068656 
   35200    293.81657   -369.69434     30019.43   0.99653034   -9697.1955   -11447.943     1750.747    31.079032    31.079032    31.079032 
   35250    297.42251   -349.47948    30031.835   0.99611871    -9718.239   -11490.472    1772.2334    31.083312    31.083312    31.083312 
   35300    299.02106    246.74565    30035.748   0.99598894   -9721.6622   -11503.421    1781.7586    31.084662    31.084662    31.084662 
   35350    296.73079    364.47935    30055.599   0.99533112   -9708.5311   -11476.643    1768.1117    31.091509    31.091509    31.091509 
   35400    297.78124    262.29436    30096.335   0.99398391   -9679.7464   -11454.117     1774.371    31.105549    31.105549    31.105549 
   35450    299.32747   -14.237205    30150.412   0.99220111   -9638.0307   -11421.615    1783.5844    31.124168    31.124168    31.124168 
   35500     299.1507     369.1958    30203.057   0.99047168   -9616.7532   -11399.284    1782.5311    31.142273    31.142273    31.142273 
   35550    304.39361    -92.68901    30264.223   0.98846989   -9616.0852   -11429.857    1813.7718    31.163281    31.163281    31.163281 
   35600    293.00132   -407.40292    30319.732   0.98666022   -9620.2987   -11366.188    1745.8892    31.182322    31.182322    31.182322 
   35650    301.06263   -693.23912    30345.908   0.98580913   -9618.1601   -11412.084    1793.9236    31.191293    31.191293    31.191293 
   35700    296.75241   -321.42791    30337.395   0.98608576    -9611.214   -11379.455    1768.2406    31.188376    31.188376    31.188376 
   35750      299.734   -346.28546    30314.096   0.98684363   -9588.1452   -11374.152    1786.0068     31.18039     31.18039     31.18039 
   35800    305.81561   -160.95197    30274.454   0.98813584   -9558.0547     -11380.3    1822.2449    31.166792    31.166792    31.166792 
   35850    307.02788     236.8225    30226.034   0.98971875   -9549.9369   -11379.405    1829.4684    31.150168    31.150168    31.150168 
   35900    295.52599    554.16335    30192.367   0.99082237   -9568.1897   -11329.122    1760.9328    31.138598    31.138598    31.138598 
   35950    296.85426   -284.51296    30174.282   0.99141624   -9623.9714   -11392.819    1768.8475    31.132379    31.132379    31.132379 
   36000    294.48413   -556.06871    30136.763    0.9926505   -9678.8092   -11433.534    1754.7247    31.119471    31.119471    31.119471 
   36050    300.23735   -245.95221    30069.299   0.99487763    -9693.152   -11482.158    1789.0061    31.096232    31.096232    31.096232 
   36100    298.17798   -209.77291    29991.209   0.99746804   -9691.2403   -11467.975     1776.735     31.06929     31.06929     31.06929 
   36150    298.02597   -126.35258      29906.3       1.0003   -9674.2452   -11450.074    1775.8292    31.039942    31.039942    31.039942 
   36200    301.10639   -133.40764    29816.736    1.0033048    -9650.506    -11444.69    1794.1843    31.008924    31.008924    31.008924 
   36250    294.16845   -61.206727    29723.112     1.006465   -9627.6116   -11380.455    1752.8437    30.976434    30.976434    30.976434 
   36300    297.39677    832.87182    29631.262    1.0095848   -9595.9167   -11367.997    1772.0801    30.944494    30.944494    30.944494 
   36350     305.0717    712.95454    29569.533    1.0116924   -9575.1827   -11392.995    1817.8122    30.922991    30.922991    30.922991 
   36400    307.11873    981.41423    29546.889    1.0124678   -9576.5392   -11406.549    1830.0098    30.915095    30.915095    30.915095 
   36450    303.91815    473.59767    29573.599    1.0115534   -9597.0232   -11407.962    1810.9387    30.924408    30.924408    30.924408 
   36500    296.90335   -10.728534    29622.913    1.0098694   -9624.3061   -11393.446    1769.1399    30.941587    30.941587    30.941587 
   36550    295.30951   -240.82644    29667.301    1.0083584   -9636.0828   -11395.726    1759.6429    30.957034    30.957034    30.957034 
   36600     301.4216    247.81507    29696.822     1.007356   -9635.3218   -11431.384    1796.0626    30.967299    30.967299    30.967299 
   36650     301.9205     115.1703    29727.068    1.0063311   -9635.7432   -11434.779    1799.0353    30.977809    30.977809    30.977809 
   36700    298.59089    275.62417    29759.854    1.0052224   -9643.8224   -11423.018    1779.1954    30.989193    30.989193    30.989193 
   36750    304.69703   -201.69888    29803.855    1.0037384   -9649.1109   -11464.691    1815.5797    31.004458    31.004458    31.004458 
   36800    305.98538    46.920163    29848.467    1.0022382   -9659.0096   -11482.266    1823.2565     31.01992     31.01992     31.01992 
   36850    300.45987    16.080073    29898.832    1.0005499   -9681.1517   -11471.484     1790.332    31.037358    31.037358    31.037358 
   36900    290.95959   -216.86923     29951.05   0.99880548   -9712.6935   -11446.417    1733.7232    31.055416    31.055416    31.055416 
   36950    289.23063   -773.99501    29988.927   0.99754395   -9739.5676   -11462.989     1723.421    31.068502    31.068502    31.068502 
   37000    284.17969   -1268.0557    29974.725   0.99801658   -9755.7159    -11449.04    1693.3243    31.063597    31.063597    31.063597 
   37050    290.12187   -831.57923    29889.569      1.00086   -9745.8774   -11474.609    1728.7316    31.034152    31.034152    31.034152 
   37100     297.3598   -46.096012    29762.624    1.0051289   -9696.5486   -11468.408    1771.8598    30.990154    30.990154    30.990154 
   37150    308.14224    630.47623    29643.151    1.0091799   -9651.0003   -11487.109    1836.1085    30.948632    30.948632    30.948632 
   37200     312.7262    681.81853    29573.889    1.0115434   -9639.8888   -11503.311    1863.4226    30.924509    30.924509    30.924509 
   37250    306.63738    755.68096    29555.604    1.0121692   -9654.2611   -11481.403    1827.1415    30.918134    30.918134    30.918134 
   37300    298.34248    674.44936    29577.216    1.0114296   -9683.1401   -11460.855    1777.7152    30.925669    30.925669    30.925669 
   37350    297.57357    551.34653    29627.579    1.0097103   -9704.3175   -11477.451    1773.1336    30.943212    30.943212    30.943212 
   37400    297.24885    419.56969    29701.604    1.0071938   -9708.7165   -11479.915    1771.1987    30.968961    30.968961    30.968961 
   37450    308.55179     317.3397    29789.197    1.0042323   -9703.4205   -11541.969    1838.5488    30.999375    30.999375    30.999375 
   37500    302.20699    324.42924     29883.56    1.0010612   -9711.5306   -11512.273    1800.7425    31.032072    31.032072    31.032072 
   37550    294.00787    -280.6235    29978.822   0.99788019    -9732.689   -11484.576    1751.8868    31.065012    31.065012    31.065012 
   37600    287.15548   -847.91844    30044.162      0.99571   -9762.5029   -11473.559    1711.0559    31.087565    31.087565    31.087565 
   37650    286.29666   -286.54243    30064.344    0.9950416   -9774.6137   -11480.552    1705.9385    31.094524    31.094524    31.094524 
   37700    284.33577    14.969915    30064.249   0.99504473   -9752.0646   -11446.319    1694.2543    31.094491    31.094491    31.094491 
   37750    305.87591   -85.234354    30057.507   0.99526792   -9704.2581   -11526.862    1822.6042    31.092167    31.092167    31.092167 
   37800    297.43914    276.93167    30054.592   0.99536447   -9672.2606   -11444.593    1772.3326    31.091161    31.091161    31.091161 
   37850    295.10914    229.73995    30061.465    0.9951369   -9654.4222   -11412.871    1758.4489    31.093531    31.093531    31.093531 
   37900    303.97472   -568.87445    30068.242   0.99491261   -9641.1958   -11452.471    1811.2757    31.095868    31.095868    31.095868 
   37950    305.25714   -18.253408    30055.622   0.99533035   -9628.3403   -11447.257    1818.9172    31.091517    31.091517    31.091517 
   38000    309.46934    274.33664    30042.046   0.99578015   -9627.7227   -11471.739    1844.0162    31.086835    31.086835    31.086835 
   38050    304.52434   -32.988008     30039.74   0.99585657   -9653.6406   -11468.191    1814.5507    31.086039    31.086039    31.086039 
   38100    293.77948    44.137433    30036.064   0.99597845   -9698.7975   -11449.323    1750.5259    31.084771    31.084771    31.084771 
   38150    299.21678   -385.10695    30029.234     0.996205    -9720.383   -11503.308    1782.9249    31.082415    31.082415    31.082415 
   38200    294.94326    174.40891    30008.894   0.99688024   -9724.6139   -11482.074    1757.4605    31.075395    31.075395    31.075395 
   38250     301.0798    309.75669    29989.429   0.99752727   -9721.0825   -11515.108    1794.0259    31.068675    31.068675    31.068675 
   38300     294.1211    229.31023    29984.833   0.99768016   -9714.3205   -11466.882    1752.5616    31.067088    31.067088    31.067088 
   38350    297.59637    49.818855    29991.922   0.99744434   -9703.7854   -11477.055    1773.2694    31.069536    31.069536    31.069536 
   38400    299.82307    269.50017    30005.332   0.99699856   -9691.1225    -11477.66    1786.5375    31.074166    31.074166    31.074166 
   38450    301.65762   -18.626415    30026.701   0.99628904   -9677.8013    -11475.27     1797.469    31.081541    31.081541    31.081541 
   38500    306.01146    125.27037     30045.19   0.99567595   -9669.3321   -11492.744    1823.4119    31.087919    31.087919    31.087919 
   38550    303.87856   -87.616221    30068.891   0.99489111   -9688.8418   -11499.545    1810.7027    31.096092    31.096092    31.096092 
   38600    295.03385   -130.27882     30098.13   0.99392462   -9736.3873   -11494.388    1758.0003    31.106168    31.106168    31.106168 
   38650    287.65079   -766.71607    30118.611   0.99324876   -9761.1989   -11475.206    1714.0073    31.113221    31.113221    31.113221 
   38700    292.29265    346.70408    30110.575   0.99351383   -9751.7338     -11493.4    1741.6664    31.110454    31.110454    31.110454 
   38750    295.96873    522.88301    30108.367   0.99358671   -9721.6678   -11485.239    1763.5709    31.109693    31.109693    31.109693 
   38800    301.90951     34.67581    30127.401   0.99295897   -9689.5472   -11488.517    1798.9699    31.116248    31.116248    31.116248 
   38850    305.32825   -144.46317    30158.997   0.99191868   -9659.6954   -11479.036    1819.3409    31.127122    31.127122    31.127122 
   38900    293.20621    202.72843    30196.241   0.99069526   -9640.9192   -11388.029    1747.1101     31.13993     31.13993     31.13993 
   38950    301.56209   -564.89361    30235.084    0.9894225   -9623.0359   -11419.936    1796.8997    31.153276    31.153276    31.153276 
   39000    312.13579   -1001.5033    30247.009   0.98903242   -9610.0141   -11469.919    1859.9046    31.157372    31.157372    31.157372 
   39050    296.67287    389.29428    30224.731   0.98976143    -9603.385   -11371.152    1767.7666     31.14972     31.14972     31.14972 
   39100    300.27819    297.36538    30203.494   0.99045735   -9597.0569   -11386.306    1789.2494    31.142423    31.142423    31.142423 
   39150    301.75165     484.2562    30190.437   0.99088573   -9605.3668   -11403.396    1798.0292    31.137934    31.137934    31.137934 
   39200     296.5754    756.32909    30191.491   0.99085112   -9635.1362   -11402.322    1767.1858    31.138297    31.138297    31.138297 
   39250    290.80639    -20.82802    30216.859   0.99001927   -9691.4355   -11424.246    1732.8104    31.147016    31.147016    31.147016 
   39300    288.09211     -5.42982    30243.648   0.98914236   -9714.2722   -11430.909    1716.6369    31.156217    31.156217    31.156217 
   39350    292.19824   -459.89564    30264.366   0.98846522   -9701.0752   -11442.179    1741.1039     31.16333     31.16333     31.16333 
   39400    302.04481    119.60561    30271.722     0.988225   -9673.1412   -11472.917    1799.7761    31.165855    31.165855    31.165855 
   39450    299.80903    369.19822    30286.919   0.98772917   -9653.7313   -11440.185    1786.4539    31.171069    31.171069    31.171069 
   39500    305.63074   -302.34204    30313.974   0.98684762   -9643.9563     -11465.1    1821.1434    31.180348    31.180348    31.180348 
   39550    295.25823   0.41405924    30334.435   0.98618197    -9640.005   -11399.342    1759.3373    31.187362    31.187362    31.187362 
   39600    301.27172   -79.254978    30350.807      0.98565   -9627.6834   -11422.853    1795.1695    31.192971    31.192971    31.192971 
   39650    315.75194   -396.32357    30365.462    0.9851743   -9617.2337   -11498.686    1881.4519    31.197991    31.197991    31.197991 
   39700     294.8628    622.82081    30374.985   0.98486545   -9640.5716   -11397.553    1756.9811    31.201252    31.201252    31.201252 
   39750    296.61614   -381.39312    30396.688   0.98416226   -9696.0495   -11463.478    1767.4286    31.208681    31.208681    31.208681 
   39800    296.81006   -220.10121    30409.223   0.98375658   -9724.5063    -11493.09    1768.5841    31.212971    31.212971    31.212971 
   39850    291.39265    393.45056    30416.429    0.9835235   -9722.5772   -11458.881    1736.3037    31.215436    31.215436    31.215436 
   39900    292.21134    203.53764    30432.487   0.98300455   -9705.3194   -11446.501     1741.182    31.220928    31.220928    31.220928 
   39950    300.61952    149.06646    30458.335   0.98217034   -9679.6523   -11470.936    1791.2833    31.229765    31.229765    31.229765 
SHAKE stats (type/ave/delta) on step 40000
  1 0.957209 1.46132e-06
  1 104.52 9.9751e-05
   40000    304.78981    79.877555    30495.529   0.98097243   -9663.1175    -11479.25    1816.1325    31.242472    31.242472    31.242472 
   40050    298.13688   -120.08066    30541.621   0.97949197   -9656.9596    -11433.45    1776.4901    31.258205    31.258205    31.258205 
   40100    297.46569    -750.3522    30577.344   0.97834764    -9651.155   -11423.646    1772.4908    31.270387    31.270387    31.270387 
   40150    302.90742   -865.39338    30574.129   0.97845052   -9644.2851   -11449.201    1804.9161    31.269291    31.269291    31.269291 
   40200    296.88421   -25.844484    30531.104   0.97982938   -9635.4571   -11404.483    1769.0259    31.254616    31.254616    31.254616 
   40250    294.76408    257.63181     30476.18   0.98159524   -9607.6842   -11364.077    1756.3928    31.235863    31.235863    31.235863 
   40300    303.42802   -225.11627    30422.337    0.9833325   -9543.2431   -11351.261    1808.0181    31.217457    31.217457    31.217457 
   40350    311.13048    -702.4227    30350.702    0.9856534   -9506.0691   -11359.983    1853.9143    31.192936    31.192936    31.192936 
   40400    293.58162    78.272888    30240.894   0.98923244   -9507.5446   -11256.892     1749.347    31.155271    31.155271    31.155271 
   40450     309.7036    157.47127    30116.447   0.99332013   -9520.0874   -11365.499     1845.412    31.112476    31.112476    31.112476 
   40500     305.8188    731.29638    30001.766   0.99711708   -9551.0983   -11373.362    1822.2639    31.072935    31.072935    31.072935 
   40550    306.39495    763.45015    29928.125   0.99957058   -9590.4242   -11416.121     1825.697     31.04749     31.04749     31.04749 
   40600     300.2308    663.12416    29896.706     1.000621   -9623.7415   -11412.708     1788.967    31.036622    31.036622    31.036622 
   40650    298.45393    418.18907    29901.204    1.0004705   -9639.5302    -11417.91    1778.3793    31.038178    31.038178    31.038178 
   40700     298.5686    382.34227     29930.49    0.9994916   -9651.3083   -11430.371    1779.0626    31.048308    31.048308    31.048308 
   40750    296.87674   -153.26013    29975.045   0.99800594   -9658.2563   -11427.238    1768.9814    31.063707    31.063707    31.063707 
   40800    297.85218   -79.005559    30010.865   0.99681476   -9656.6094   -11431.403    1774.7937    31.076076    31.076076    31.076076 
   40850    298.12603    156.34989    30043.716   0.99572479    -9641.557   -11417.982    1776.4255    31.087411    31.087411    31.087411 
   40900    305.79212    205.55488     30086.96   0.99429362   -9609.6725   -11431.777    1822.1049    31.102319    31.102319    31.102319 
   40950    301.44682    406.15846    30149.009   0.99224731   -9571.4518   -11367.665    1796.2129    31.123685    31.123685    31.123685 
   41000    310.14082   -275.98477    30225.181    0.9897467   -9554.1417   -11402.159    1848.0173    31.149875    31.149875    31.149875 
   41050    304.06234   -112.93907    30292.023   0.98756272   -9562.8258   -11374.624    1811.7978     31.17282     31.17282     31.17282 
   41100    299.49071   -690.38973    30347.094    0.9857706   -9597.1101   -11381.667    1784.5571    31.191699    31.191699    31.191699 
   41150    299.72487   -740.98283    30370.102   0.98502379   -9638.2357   -11424.188    1785.9524     31.19958     31.19958     31.19958 
   41200    294.74171   -918.14855    30347.483   0.98575797   -9663.4237   -11419.683    1756.2596    31.191833    31.191833    31.191833 
   41250    298.21449   -210.85311    30274.599    0.9881311   -9670.7757   -11447.728    1776.9526    31.166842    31.166842    31.166842 
   41300    309.24156   -55.404888    30188.138   0.99096117    -9670.056   -11512.715    1842.6589    31.137144    31.137144    31.137144 
   41350    303.66082    260.46857    30107.752     0.993607   -9676.9564   -11486.362    1809.4053    31.109482    31.109482    31.109482 
   41400    294.85918     463.3763    30043.373   0.99573614   -9687.6482   -11444.608    1756.9595    31.087292    31.087292    31.087292 
   41450    289.31791    639.38465    29998.446   0.99722742   -9694.1142   -11418.055     1723.941    31.071789    31.071789    31.071789 
   41500    302.13194   -114.13785    29972.604   0.99808722   -9693.9835   -11494.279    1800.2952    31.062864    31.062864    31.062864 
   41550    300.11532     412.1205    29952.405   0.99876031   -9697.3808    -11485.66     1788.279    31.055884    31.055884    31.055884 
   41600    296.46087    96.362629    29956.758   0.99861517   -9697.6116   -11464.115    1766.5034    31.057389    31.057389    31.057389 
   41650    298.08834    186.71381    29971.591   0.99812095   -9688.0442   -11464.245    1776.2009    31.062514    31.062514    31.062514 
   41700    308.33496   -391.01757    29995.098   0.99733871   -9662.2675   -11499.524    1837.2568    31.070633    31.070633    31.070633 
   41750    309.58692   -915.23009    30003.195   0.99706958   -9648.2517   -11492.969    1844.7168    31.073428    31.073428    31.073428 
   41800    304.83174   -298.93066    29979.818   0.99784703   -9654.2329   -11470.615    1816.3824    31.065356    31.065356    31.065356 
   41850    299.66052   -86.957534    29945.268   0.99899835   -9666.9686   -11452.538     1785.569    31.053417    31.053417    31.053417 
   41900    305.41743    481.92952    29911.206     1.000136   -9682.7962   -11502.668    1819.8723    31.041639    31.041639    31.041639 
   41950    293.47958    364.47501    29901.513    1.0004602   -9709.2966   -11458.036    1748.7389    31.038285    31.038285    31.038285 
   42000    290.74383    177.01497    29907.826     1.000249    -9740.097   -11472.535    1732.4376    31.040469    31.040469    31.040469 
   42050    297.81743   -375.92811    29923.026   0.99974091   -9755.8317   -11530.418    1774.5867    31.045727    31.045727    31.045727 
   42100    289.63774   -43.446296    29931.129   0.99947026   -9753.2272   -11479.074    1725.8468    31.048529    31.048529    31.048529 
   42150    296.79177    -197.7418    29924.012   0.99970796   -9719.4027   -11487.878    1768.4751    31.046068    31.046068    31.046068 
   42200    304.18844   -72.737471    29907.315    1.0002661   -9662.7792   -11475.328    1812.5492    31.040293    31.040293    31.040293 
   42250     299.8949   -243.58765     29891.35    1.0008003   -9633.1717   -11420.137    1786.9655    31.034769    31.034769    31.034769 
   42300     298.6125    379.96594    29864.636    1.0016956     -9622.81   -11402.134    1779.3242     31.02552     31.02552     31.02552 
   42350    298.40465     700.9006    29856.708    1.0019615   -9609.8071   -11387.893    1778.0857    31.022775    31.022775    31.022775 
   42400    304.76619    202.41615    29879.185    1.0012078   -9598.7158   -11414.708    1815.9918    31.030558    31.030558    31.030558 
   42450    298.74518    231.97455    29922.147   0.99977026   -9598.5136   -11378.628    1780.1148    31.045423    31.045423    31.045423 
   42500    303.19406   -107.35499    29982.502   0.99775771   -9609.5884   -11416.212     1806.624    31.066283    31.066283    31.066283 
   42550    297.37872   -298.63226     30052.71    0.9954268   -9634.9565   -11406.929    1771.9725    31.090512    31.090512    31.090512 
   42600    289.29991   -306.90884    30123.189    0.9930978   -9653.5505   -11377.384    1723.8338    31.114798    31.114798    31.114798 
   42650    293.77927   -294.68572    30183.962   0.99109829   -9650.5647   -11401.089    1750.5247    31.135708    31.135708    31.135708 
   42700    296.40773    -678.4846    30231.454   0.98954132   -9618.7205   -11384.907    1766.1868    31.152029    31.152029    31.152029 
   42750    303.41468   -706.98707    30247.388   0.98902004   -9569.4357   -11377.374    1807.9387    31.157502    31.157502    31.157502 
   42800    310.05417   -671.47094    30232.696   0.98950067   -9542.0055   -11389.506     1847.501    31.152456    31.152456    31.152456 
   42850    298.77615   -506.61598    30179.402   0.99124804   -9542.3093   -11322.609    1780.2993     31.13414     31.13414     31.13414 
   42900    301.39737    -111.4777     30086.56   0.99430686    -9548.906   -11344.824    1795.9182    31.102181    31.102181    31.102181 
   42950    305.25699    335.63427    29977.974   0.99790841   -9560.5191   -11379.435    1818.9163    31.064719    31.064719    31.064719 
   43000    307.54758    664.18738    29882.622    1.0010926   -9590.1458   -11422.711    1832.5651    31.031748    31.031748    31.031748 
   43050    305.38478    557.11886    29817.959    1.0032636   -9636.5041   -11456.182    1819.6777    31.009348    31.009348    31.009348 
   43100    300.35799    500.61781    29786.973    1.0043072   -9663.0872   -11452.812    1789.7249    30.998603    30.998603    30.998603 
   43150    295.95672     280.5438    29782.119    1.0044709   -9672.7037   -11436.203    1763.4994    30.996919    30.996919    30.996919 
   43200     298.2333   -243.39711    29786.929    1.0043087   -9668.9997   -11446.064    1777.0647    30.998588    30.998588    30.998588 
   43250    299.29613   -127.50597    29788.314     1.004262   -9650.9405   -11434.338    1783.3977    30.999068    30.999068    30.999068 
   43300    298.26812    668.20227    29790.617    1.0041844   -9627.9545   -11405.227    1777.2722    30.999867    30.999867    30.999867 
   43350    300.98679    510.81766    29812.933    1.0034327   -9609.2431   -11402.715    1793.4717    31.007606    31.007606    31.007606 
   43400    300.27001    397.35158    29864.903    1.0016866   -9597.2771   -11386.478    1789.2007    31.025613    31.025613    31.025613 
   43450    303.59483    332.00626    29947.589   0.99892093   -9585.6096   -11394.622    1809.0121     31.05422     31.05422     31.05422 
   43500    303.01996   -854.98116    30042.577   0.99576254   -9575.5271   -11381.114    1805.5866    31.087018    31.087018    31.087018 
   43550    290.88437   -284.45651    30106.879   0.99363581    -9551.989   -11285.264     1733.275    31.109181    31.109181    31.109181 
   43600    302.78842    10.884777    30145.988   0.99234675   -9512.0292   -11316.236     1804.207    31.122645    31.122645    31.122645 
   43650    301.29448   -170.27136    30174.892   0.99139619    -9485.159   -11280.464    1795.3051    31.132589    31.132589    31.132589 
   43700     311.6248   -569.16648    30192.348   0.99082299   -9476.0665   -11332.926    1856.8598    31.138592    31.138592    31.138592 
   43750    306.29401   -597.32646    30186.604   0.99101153   -9495.7872   -11320.883    1825.0955    31.136617    31.136617    31.136617 
   43800    296.01286   -72.788314    30150.736   0.99219047   -9531.6121   -11295.446    1763.8339    31.124279    31.124279    31.124279 
   43850    295.89047   -63.493516    30101.651   0.99380838   -9561.1921   -11324.297    1763.1046     31.10738     31.10738     31.10738 
   43900    291.86293   -266.94239    30036.768   0.99595513   -9575.8563   -11314.962    1739.1059    31.085014    31.085014    31.085014 
   43950     299.6207   -237.73986     29943.43   0.99905965   -9579.8454   -11365.177    1785.3317    31.052782    31.052782    31.052782 
   44000     298.3275    158.21425    29832.959    1.0027592   -9581.8674   -11359.493     1777.626    31.014547    31.014547    31.014547 
   44050    296.52918    1111.0148    29732.996    1.0061305   -9582.3721   -11349.283    1766.9104    30.979867    30.979867    30.979867 
   44100    304.21286    387.33665    29682.973     1.007826   -9581.1408   -11393.835    1812.6947    30.962484    30.962484    30.962484 
   44150    295.59406    623.97434    29667.878    1.0083388   -9575.7066   -11337.045    1761.3384    30.957235    30.957235    30.957235 
   44200    299.21416    499.65775    29682.994    1.0078253   -9555.1811    -11338.09    1782.9092    30.962491    30.962491    30.962491 
   44250    307.63811    462.17404    29725.534     1.006383   -9505.6789   -11338.783    1833.1045    30.977276    30.977276    30.977276 
   44300    311.54634    219.73715    29793.824    1.0040763   -9458.6043   -11314.997    1856.3922     31.00098     31.00098     31.00098 
   44350    306.53671   -209.21561    29877.757    1.0012557    -9447.474   -11274.016    1826.5417    31.030063    31.030063    31.030063 
   44400    301.82021    426.98069    29962.251   0.99843208   -9454.6528   -11253.091    1798.4378    31.059287    31.059287    31.059287 
   44450    304.93978   -1.9479631    30052.756   0.99542527   -9470.4567   -11287.483    1817.0261    31.090528    31.090528    31.090528 
   44500    303.30347   -645.99335    30133.337   0.99276336   -9487.7829   -11295.059     1807.276    31.118291    31.118291    31.118291 
   44550    295.03672   -99.117686    30184.537    0.9910794   -9499.9163   -11257.934    1758.0174    31.135906    31.135906    31.135906 
   44600    298.25025   -311.06087    30218.284    0.9899726   -9511.6188   -11288.784    1777.1657    31.147505    31.147505    31.147505 
   44650    295.83696   -582.58114    30231.517   0.98953925   -9520.9344    -11283.72    1762.7857    31.152051    31.152051    31.152051 
   44700    301.74488    -740.1619    30209.329   0.99026604   -9524.9976   -11322.986    1797.9889    31.144428    31.144428    31.144428 
   44750    298.15129   -846.86374    30144.924   0.99238176   -9526.8912   -11303.467     1776.576    31.122279    31.122279    31.122279 
   44800    303.58303    133.89341    30044.229    0.9957078   -9521.6526   -11330.594    1808.9418    31.087587    31.087587    31.087587 
   44850    307.43279    536.38597    29949.017   0.99887327   -9531.4687    -11363.35    1831.8811    31.054713    31.054713    31.054713 
   44900    301.05572    592.24369    29885.383    1.0010002   -9564.6722   -11358.555    1793.8824    31.032703    31.032703    31.032703 
   44950    294.06928    1279.6083     29859.16    1.0018792   -9624.3094   -11376.562    1752.2528    31.023624    31.023624    31.023624 
   45000    289.66268    22.081457    29884.758    1.0010211   -9644.1756   -11370.171    1725.9954    31.032487    31.032487    31.032487 
   45050    289.00963   -415.68904    29907.323    1.0002658   -9635.3423   -11357.446    1722.1041    31.040295    31.040295    31.040295 
   45100    288.70135   -84.318694    29899.564    1.0005254   -9608.7713   -11329.039    1720.2672    31.037611    31.037611    31.037611 
   45150    300.19282    224.31868    29874.286     1.001372   -9570.0643   -11358.805    1788.7407    31.028862    31.028862    31.028862 
   45200    305.80904    753.60925    29856.613    1.0019647   -9554.0619   -11376.268    1822.2058    31.022742    31.022742    31.022742 
   45250    300.93701    228.23646    29868.827     1.001555   -9556.7813   -11349.956    1793.1751    31.026972    31.026972    31.026972 
   45300    299.03227    318.31411    29894.072    1.0007092    -9567.387   -11349.212    1781.8254    31.035711    31.035711    31.035711 
   45350    298.17244   -312.24457    29923.702    0.9997183    -9583.341   -11360.043     1776.702    31.045961    31.045961    31.045961 
   45400    301.68282   -540.07272    29932.484   0.99942501   -9607.3463   -11404.965    1797.6191    31.048998    31.048998    31.048998 
   45450    295.46047  0.048561138    29920.477   0.99982607   -9631.9798   -11392.522    1760.5423    31.044846    31.044846    31.044846 
   45500    297.47579   -240.11642    29906.782    1.0002839   -9645.4462   -11417.997    1772.5509    31.040108    31.040108    31.040108 
   45550     297.8328   -227.19447    29888.624    1.0008916   -9651.6692   -11426.347    1774.6783    31.033825    31.033825    31.033825 
   45600    298.70426    236.17208    29866.824    1.0016222   -9647.4763   -11427.347    1779.8709    31.026278    31.026278    31.026278 
   45650    305.93746    542.20663    29866.732    1.0016253   -9620.4117   -11443.383     1822.971    31.026246    31.026246    31.026246 
   45700    301.88002    122.28265    29901.569    1.0004583   -9582.4751   -11381.269    1798.7942    31.038305    31.038305    31.038305 
   45750     302.5653    570.51416     29947.06   0.99893857   -9557.6707   -11360.548    1802.8775    31.054037    31.054037    31.054037 
   45800    307.89543    89.959913    30005.777   0.99698379    -9554.041   -11388.679    1834.6378    31.074319    31.074319    31.074319 
   45850    304.81257   -463.69503    30063.454   0.99507104   -9573.3025   -11389.571    1816.2682    31.094217    31.094217    31.094217 
   45900    299.51878   -357.04524    30097.814   0.99393506   -9607.6294   -11392.354    1784.7244    31.106059    31.106059    31.106059 
   45950    296.30686   -452.66065     30110.37    0.9935206   -9639.0534   -11404.639    1765.5857    31.110383    31.110383    31.110383 
   46000    291.74988   -629.25621    30097.636   0.99394094   -9650.5633   -11388.996    1738.4323    31.105997    31.105997    31.105997 
   46050     307.0707   -911.66691    30048.828   0.99555539   -9643.5245   -11473.248    1829.7236    31.089174    31.089174    31.089174 
   46100    302.62258   -109.39978    29967.301   0.99826385   -9637.1345   -11440.353    1803.2188    31.061032    31.061032    31.061032 
   46150    293.48943    725.09855    29888.567    1.0008935   -9638.5447   -11387.342    1748.7977    31.033805    31.033805    31.033805 
   46200    300.95851     239.7642    29847.102     1.002284    -9633.423   -11426.726    1793.3032    31.019447    31.019447    31.019447 
   46250    298.22905     162.0428    29824.884    1.0030307   -9627.3987   -11404.438    1777.0393    31.011748    31.011748    31.011748 
   46300    302.55744    783.26226    29809.609    1.0035446   -9625.8328   -11428.663    1802.8306    31.006453    31.006453    31.006453 
   46350    299.84546    1088.4263    29832.376    1.0027787   -9634.4353   -11421.106    1786.6709    31.014345    31.014345    31.014345 
   46400    298.34202    174.85522    29903.459    1.0003951   -9649.8458   -11427.558    1777.7125    31.038959    31.038959    31.038959 
   46450    286.52999   -331.32449    29977.943   0.99790947   -9682.4092   -11389.738    1707.3289    31.064708    31.064708    31.064708 
   46500    297.73998   -827.05295    30023.528   0.99639432   -9710.2362   -11484.361    1774.1252    31.080446    31.080446    31.080446 
   46550    287.32361   -267.42054    30031.167   0.99614088   -9718.8474   -11430.905    1712.0577    31.083082    31.083082    31.083082 
   46600    297.07558    166.40095     30020.92   0.99648088   -9701.6733    -11471.84    1770.1662    31.079546    31.079546    31.079546 
   46650    290.28847    257.88359    30016.918   0.99661375    -9667.191   -11396.915    1729.7243    31.078165    31.078165    31.078165 
   46700    300.26741    2.6316048    30021.557   0.99645973    -9627.793   -11416.978    1789.1852    31.079766    31.079766    31.079766 
   46750    298.89688   -291.20957    30028.924   0.99621529   -9606.6117    -11387.63    1781.0187    31.082308    31.082308    31.082308 
   46800    304.42076   -251.44003    30033.193   0.99607368   -9594.9983   -11408.932    1813.9335    31.083781    31.083781    31.083781 
   46850    295.40056    202.86723    30034.016   0.99604638   -9589.9273   -11350.113    1760.1854    31.084065    31.084065    31.084065 
   46900    304.50799   -458.07531    30038.097   0.99591107   -9579.3908   -11393.844    1814.4532    31.085472    31.085472    31.085472 
   46950    305.18909   -373.17559    30031.175    0.9961406   -9569.2975   -11387.809    1818.5117    31.083085    31.083085    31.083085 
   47000    301.06958   -406.02763    30012.629   0.99675615   -9570.7057   -11364.671     1793.965    31.076685    31.076685    31.076685 
   47050    295.96693    74.564022    29976.254   0.99796568   -9584.1789   -11347.739    1763.5602    31.064125    31.064125    31.064125 
   47100    297.50399   -318.51897    29934.873   0.99934523   -9618.4758   -11391.195     1772.719    31.049824    31.049824    31.049824 
   47150    299.14943     -311.046    29881.175    1.0011411   -9659.5405   -11442.064    1782.5236    31.031247    31.031247    31.031247 
   47200    292.39871    208.64641    29821.675    1.0031386    -9683.628   -11425.926    1742.2984    31.010636    31.010636    31.010636 
   47250    304.67328    11.957057    29772.965    1.0047798   -9698.8931   -11514.331    1815.4382    30.993743    30.993743    30.993743 
   47300     291.5932    138.20571    29733.786    1.0061037   -9709.6534   -11447.152    1737.4987    30.980142    30.980142    30.980142 
   47350    289.59415    288.91753    29702.041     1.007179   -9703.3192   -11428.906    1725.5871    30.969113    30.969113    30.969113 
   47400    300.18973    311.21491    29676.356    1.0080507   -9669.6923   -11458.415    1788.7223    30.960183    30.960183    30.960183 
   47450    298.17765    491.84533    29666.279    1.0083932   -9618.8242   -11395.557    1776.7331    30.956678    30.956678    30.956678 
   47500    302.50278     180.2429    29673.091    1.0081617   -9589.5572   -11392.062     1802.505    30.959048    30.959048    30.959048 
   47550    298.61155    705.58518    29694.686    1.0074285   -9583.2932   -11362.612    1779.3185    30.966556    30.966556    30.966556 
   47600    305.96974    230.61925    29750.962    1.0055229   -9583.0426   -11406.206    1823.1633    30.986106    30.986106    30.986106 
   47650    295.81389   -101.69967    29822.148    1.0031227   -9586.9183   -11349.567    1762.6482      31.0108      31.0108      31.0108 
   47700    296.80581   -32.448653    29882.886    1.0010838   -9593.2414     -11361.8    1768.5588    31.031839    31.031839    31.031839 
   47750    306.82891    200.32541    29930.593   0.99948815   -9609.7229   -11438.006    1828.2828    31.048344    31.048344    31.048344 
   47800    304.47101    428.56305    29986.233   0.99763359   -9652.6938   -11466.927    1814.2329    31.067571    31.067571    31.067571 
   47850    300.01568   -596.78292    30062.171   0.99511351   -9695.7784   -11483.464    1787.6852    31.093775    31.093775    31.093775 
   47900    287.91354   -383.98046    30115.795   0.99334164   -9709.3419   -11424.915    1715.5729    31.112252    31.112252    31.112252 
   47950    294.62978   -292.72735     30140.93   0.99251327   -9702.0994   -11457.692    1755.5926    31.120905    31.120905    31.120905 
   48000     293.2595   -961.97422    30149.282   0.99223832   -9678.4852   -11425.913    1747.4276    31.123779    31.123779    31.123779 
   48050    304.24665   -818.92654    30108.902   0.99356905   -9654.6817   -11467.578     1812.896    31.109878    31.109878    31.109878 
   48100    302.97612    26.470698    30034.519   0.99602968   -9641.5487   -11446.874    1805.3254    31.084238    31.084238    31.084238 
   48150    304.30399    195.26504    29962.042   0.99843907   -9640.2445   -11453.482    1813.2377    31.059214    31.059214    31.059214 
   48200    300.02829     481.7011    29903.603    1.0003902    -9646.399   -11434.159    1787.7604    31.039008    31.039008    31.039008 
   48250    288.48064    437.02931    29871.175    1.0014763   -9650.2463   -11369.198    1718.9521    31.027785    31.027785    31.027785 
   48300    297.86647   -17.894863    29854.213    1.0020453   -9627.1223   -11402.001    1774.8788    31.021911    31.021911    31.021911 
   48350    304.69722    986.32944    29842.746    1.0024303   -9575.7237   -11391.304    1815.5808    31.017938    31.017938    31.017938 
   48400    307.15647    541.54312    29873.635    1.0013938   -9543.2533   -11373.488    1830.2346    31.028636    31.028636    31.028636 
   48450    300.19022   -273.44351    29923.442   0.99972701   -9539.0319   -11327.757    1788.7253    31.045871    31.045871    31.045871 
   48500    304.81841     30.04245    29958.227   0.99856621   -9540.5708   -11356.874    1816.3029    31.057896    31.057896    31.057896 
   48550    313.08077   -159.10879    29994.971   0.99734294   -9547.6581   -11413.193    1865.5354    31.070589    31.070589    31.070589 
   48600    304.78584   -88.647855    30032.052   0.99611153   -9577.7219   -11393.831    1816.1089    31.083387    31.083387    31.083387 
   48650    305.79156   -691.77084     30069.06   0.99488552   -9625.2664   -11447.368    1822.1016     31.09615     31.09615     31.09615 
   48700    293.18964   -131.96203    30086.213   0.99431831   -9660.3401   -11407.351    1747.0113    31.102062    31.102062    31.102062 
   48750    296.87787   -1037.9111    30080.586   0.99450433   -9669.5943   -11438.582    1768.9882    31.100122    31.100122    31.100122 
   48800    287.26937   -614.19382    30022.362   0.99643301   -9666.8311   -11378.566    1711.7345    31.080044    31.080044    31.080044 
   48850    304.50592   -139.92099    29920.973    0.9998095   -9648.2485   -11462.689    1814.4409    31.045017    31.045017    31.045017 
   48900    298.78652    136.87697    29808.146    1.0035939   -9635.4486    -11415.81    1780.3611    31.005946    31.005946    31.005946 
   48950    304.47651     551.3606    29706.694    1.0070213   -9624.3111   -11438.577    1814.2657     30.97073     30.97073     30.97073 
   49000    299.84341    906.35962    29633.782     1.009499   -9619.4026   -11406.061    1786.6587    30.945371    30.945371    30.945371 
   49050     307.8642    455.23117    29599.135    1.0106806   -9620.9365   -11455.388    1834.4517    30.933306    30.933306    30.933306 
   49100      300.163    479.51729    29594.499     1.010839   -9637.7776   -11426.341    1788.5631    30.931691    30.931691    30.931691 
   49150    296.03367    181.03558    29614.046    1.0101717   -9663.4385   -11427.396    1763.9579      30.9385      30.9385      30.9385 
   49200    293.10243   -37.069922    29643.515    1.0091675   -9685.2039   -11431.696    1746.4916    30.948758    30.948758    30.948758 
   49250    294.29034   -341.75577    29664.257    1.0084619    -9689.952   -11443.522      1753.57    30.955975    30.955975    30.955975 
   49300     295.0672      410.402    29670.449    1.0082514   -9672.2761   -11430.475     1758.199    30.958129    30.958129    30.958129 
   49350    298.71689     239.7999    29698.543    1.0072976   -9632.8836    -11412.83    1779.9462    30.967897    30.967897    30.967897 
   49400    313.45593   -659.32098    29737.675    1.0059722   -9601.9109   -11469.682    1867.7708    30.981492    30.981492    30.981492 
   49450    304.36945     393.9812    29762.948    1.0051179   -9598.6286   -11412.256    1813.6278    30.990267    30.990267    30.990267 
   49500    297.27095   -92.086528    29800.355    1.0038563   -9607.4867   -11378.817    1771.3304    31.003244    31.003244    31.003244 
   49550    300.63277   -813.71592    29825.247    1.0030184   -9614.2222   -11405.584    1791.3622    31.011874    31.011874    31.011874 
   49600    293.89329    6.1721241    29820.614    1.0031743   -9611.7806   -11362.985    1751.2041    31.010268    31.010268    31.010268 
   49650    297.73206    285.85455    29813.758     1.003405   -9593.9259   -11368.004     1774.078    31.007892    31.007892    31.007892 
   49700    310.03582   -147.69554    29821.576    1.0031419   -9559.9875   -11407.379    1847.3916    31.010602    31.010602    31.010602 
   49750    309.10612   -6.1581531    29835.504    1.0026736   -9508.7643   -11350.616    1841.8519    31.015429    31.015429    31.015429 
   49800    310.41816   -62.237056    29850.135    1.0021822   -9466.6911   -11316.361    1849.6698    31.020498    31.020498    31.020498 
   49850    311.71143    4.9233726    29863.598    1.0017304   -9455.9363   -11313.312     1857.376    31.025161    31.025161    31.025161 
   49900    307.02143    40.324296    29884.695    1.0010232   -9468.5292   -11297.959      1829.43    31.032465    31.032465    31.032465 
   49950    295.47298    50.756656    29912.883    1.0000799   -9485.7846   -11246.402    1760.6169    31.042219    31.042219    31.042219 
SHAKE stats (type/ave/delta) on step 50000
  1 0.957202 1.5619e-06
  1 104.52 9.74117e-05
   50000    304.53196   -831.15016    29935.163   0.99933555   -9492.5162   -11307.112    1814.5961    31.049924    31.049924    31.049924 
   50006    302.81443   -887.15494    29935.775   0.99931513   -9493.0234   -11297.385    1804.3619    31.050136    31.050136    31.050136 
Loop time of 168.364 on 28 procs for 50000 steps with 3000 atoms

Performance: 25.659 ns/day, 0.935 hours/ns, 296.976 timesteps/s
100.0% CPU use with 28 MPI tasks x no OpenMP threads

MPI task timing breakdown:
Section |  min time  |  avg time  |  max time  |%varavg| %total
---------------------------------------------------------------
Pair    | 56.117     | 64.61      | 72.479     |  56.3 | 38.37
Bond    | 0.016596   | 0.02004    | 0.024213   |   1.5 |  0.01
Kspace  | 59.102     | 67.001     | 75.532     |  55.3 | 39.80
Neigh   | 2.2061     | 2.211      | 2.215      |   0.2 |  1.31
Comm    | 5.7182     | 5.8373     | 5.9248     |   2.1 |  3.47
Output  | 0.072014   | 0.073499   | 0.098318   |   1.8 |  0.04
Modify  | 18.904     | 22.258     | 28.045     |  71.6 | 13.22
Other   |            | 6.353      |            |       |  3.77

Nlocal:    107.143 ave 118 max 92 min
Histogram: 1 1 2 4 2 6 2 2 4 4
Nghost:    3498.36 ave 3531 max 3471 min
Histogram: 4 4 1 1 6 2 5 2 1 2
Neighs:    28350.3 ave 34988 max 23894 min
Histogram: 6 2 4 2 4 1 5 2 1 1

Total # of neighbors = 793809
Ave neighs/atom = 264.603
Ave special neighs/atom = 2
Neighbor list builds = 2247
Dangerous builds = 0

fix 6 all efield 0.0 0.0 0.225

timestep 1.0
run 100000
PPPM initialization ...
  extracting TIP4P info from pair style
WARNING: Using 12-bit tables for long-range coulomb (../kspace.cpp:317)
  G vector (1/distance) = 0.36949
  grid = 36 36 36
  stencil order = 5
  estimated absolute RMS force accuracy = 0.00328403
  estimated relative force accuracy = 9.88975e-06
  using double precision FFTs
  3d grid and FFT values/proc = 8125 2592
SHAKE stats (type/ave/delta) on step 50006
  1 0.957201 1.79335e-06
  1 104.52 0.000123589
Memory usage per processor = 11.6719 Mbytes
Step Temp Press Volume Density TotEng PotEng KinEng Lx Ly Lz 
   50006    302.81443   -882.76869    29935.775   0.99931513   -9493.0235   -11297.385    1804.3619    31.050136    31.050136    31.050136 
   50050    321.51043    196.58839    29926.635   0.99962034    -8944.399   -10860.164    1915.7647    31.046975    31.046975    31.046975 
   50100    331.55068    714.55596    29921.873   0.99977942    -8757.717   -10733.308    1975.5909    31.045328    31.045328    31.045328 
   50150    342.96659    725.46492    29939.169   0.99920184   -8570.9492   -10614.563    2043.6142    31.051309    31.051309    31.051309 
   50200    358.97648    290.92627    29988.789   0.99754856   -8463.2842   -10602.296    2139.0113    31.068454    31.068454    31.068454 
   50250    359.13662    213.81995    30064.509   0.99503612    -8360.881   -10500.847    2139.9656    31.094581    31.094581    31.094581 
   50300    358.14922    407.71056    30162.169   0.99181438   -8305.0861   -10439.168     2134.082    31.128213    31.128213    31.128213 
   50350    348.33792   -613.59924    30269.155   0.98830881   -8321.6044   -10397.224      2075.62    31.164974    31.164974    31.164974 
   50400    345.58378   -752.03343    30339.774   0.98600842    -8354.756   -10413.965    2059.2091    31.189191    31.189191    31.189191 
   50450    349.05081   -1260.6457    30363.077   0.98525169   -8411.8959   -10491.764    2079.8679    31.197174    31.197174    31.197174 
   50500    339.19546   -1412.8263    30313.476   0.98686383   -8466.5138   -10487.657    2021.1434    31.180177    31.180177    31.180177 
   50550    347.81087   -1023.9779     30183.05   0.99112822   -8517.5331   -10590.013    2072.4795    31.135395    31.135395    31.135395 
   50600    338.15349   -674.72287    30001.129   0.99713822   -8573.9405   -10588.875    2014.9346    31.072715    31.072715    31.072715 
   50650     332.1791   -657.50836    29791.849    1.0041429   -8633.6224   -10612.958    1979.3354    31.000294    31.000294    31.000294 
   50700    335.33906   -794.27449     29566.57    1.0117938   -8723.1511   -10721.316    1998.1645    30.921958    30.921958    30.921958 
   50750    334.18827   -993.68768     29337.89    1.0196804   -8810.4525    -10801.76    1991.3073     30.84203     30.84203     30.84203 
   50800     329.7082   -1159.2666    29110.133    1.0276584   -8893.4674    -10858.08    1964.6122    30.762011    30.762011    30.762011 
   50850    323.67934   -251.25495    28887.409    1.0355817   -8991.9951   -10920.684    1928.6884    30.683356    30.683356    30.683356 
   50900     324.0794   -924.86856    28701.174    1.0423014    -9094.267   -11025.339    1931.0722    30.617276    30.617276    30.617276 
   50950    312.79288   -343.55254    28534.201    1.0484006    -9203.817   -11067.637    1863.8199    30.557787    30.557787    30.557787 
   51000    310.17327   -192.44619     28389.95    1.0537276   -9276.0125   -11124.223    1848.2106    30.506207    30.506207    30.506207 
   51050    306.59569   -42.782764    28265.363    1.0583721   -9353.2059   -11180.099    1826.8931    30.461517    30.461517    30.461517 
   51100    310.02091   -29.903511    28155.271    1.0625106   -9414.7861   -11262.089    1847.3027    30.421917    30.421917    30.421917 
   51150    298.55266   -97.320441    28060.521    1.0660983   -9492.5211   -11271.489    1778.9676    30.387752    30.387752    30.387752 
   51200     297.5236   -394.63577    27973.574    1.0694119   -9538.9646     -11311.8    1772.8358    30.356334    30.356334    30.356334 
   51250    297.35972   -66.538592    27879.136    1.0730344   -9585.4241   -11357.283    1771.8593    30.322135    30.322135    30.322135 
   51300     299.1809     173.9072    27788.278    1.0765429   -9620.1852   -11402.896    1782.7111    30.289159    30.289159    30.289159 
   51350    298.45419    336.66222    27718.582    1.0792498   -9637.9468   -11416.328    1778.3809    30.263815    30.263815    30.263815 
   51400     298.7844   -175.18719    27671.599    1.0810822   -9659.9047   -11440.253    1780.3485    30.246706    30.246706    30.246706 
   51450    293.35153    206.10154    27628.019    1.0827875   -9658.4771   -11406.453    1747.9759    30.230819    30.230819    30.230819 
   51500    295.72397    455.68934    27597.776    1.0839741   -9643.7015   -11405.814    1762.1124    30.219784    30.219784    30.219784 
   51550    301.98792   -38.658003    27584.995    1.0844763    -9625.499   -11424.936    1799.4371    30.215119    30.215119    30.215119 
   51600    310.15999    -99.25403    27574.866    1.0848747   -9600.2311   -11448.363    1848.1315     30.21142     30.21142     30.21142 
   51650    302.53813   -485.54293    27563.793    1.0853105   -9606.7383   -11409.454    1802.7156    30.207375    30.207375    30.207375 
   51700    298.38556    252.92945    27541.361    1.0861944   -9605.8955   -11383.867    1777.9719    30.199179    30.199179    30.199179 
   51750    298.49365   -484.61084    27523.532     1.086898   -9621.7043    -11400.32     1778.616    30.192661    30.192661    30.192661 
   51800    299.88909    249.22401    27492.889    1.0881095   -9622.5676   -11409.499    1786.9309    30.181452    30.181452    30.181452 
   51850    295.87605    329.04125    27464.675    1.0892273   -9603.5747   -11366.593    1763.0186    30.171124    30.171124    30.171124 
   51900    306.12918     228.4669    27442.636     1.090102   -9616.4725   -11440.586    1824.1133    30.163052    30.163052    30.163052 
   51950    308.57582    529.09391    27432.556    1.0905026   -9622.5243   -11461.216     1838.692    30.159358    30.159358    30.159358 
   52000    304.30338    229.58652    27440.783    1.0901756   -9696.4089   -11509.643    1813.2341    30.162372    30.162372    30.162372 
   52050    302.40415   -455.90108    27456.251    1.0895615    -9750.885   -11552.802    1801.9172    30.168039    30.168039    30.168039 
   52100    285.74364    -345.0732    27459.263    1.0894419   -9796.9182   -11499.562    1702.6433    30.169142    30.169142    30.169142 
   52150    289.39253    309.49161    27446.104    1.0899643   -9816.4366   -11540.822    1724.3857    30.164322    30.164322    30.164322 
   52200    296.83269   -4.6335461    27438.958    1.0902481   -9816.0496   -11584.768    1768.7189    30.161704    30.161704    30.161704 
   52250     300.6737    129.86212    27436.258    1.0903554   -9786.7324   -11578.339    1791.6061    30.160714    30.160714    30.160714 
   52300    301.99997      881.682    27447.181    1.0899215   -9759.7717   -11559.281    1799.5089    30.164717    30.164717    30.164717 
   52350    293.85802    836.62577    27489.725    1.0882347   -9739.3268   -11490.321    1750.9939    30.180294    30.180294    30.180294 
   52400    301.53397   -154.92181    27547.435    1.0859549   -9736.4491   -11533.181    1796.7322    30.201399    30.201399    30.201399 
   52450    306.67094   -465.94315    27597.753     1.083975   -9742.0912   -11569.433    1827.3415    30.219776    30.219776    30.219776 
   52500    304.32008   -707.08219    27626.054    1.0828645   -9777.9237   -11591.257    1813.3336    30.230102    30.230102    30.230102 
   52550    304.54342   -816.40655    27627.478    1.0828087   -9779.5322   -11594.197    1814.6644    30.230622    30.230622    30.230622 
   52600    294.76965   -621.90697    27600.708    1.0838589   -9798.9665   -11555.393     1756.426    30.220854    30.220854    30.220854 
   52650    300.09514    36.667751    27552.232    1.0857658   -9803.3776   -11591.536    1788.1587    30.203152    30.203152    30.203152 
   52700    297.73312   -788.04775    27498.346    1.0878935   -9791.4905   -11565.575    1774.0843    30.183449    30.183449    30.183449 
   52750    303.70349   -792.27768    27415.385    1.0911856   -9789.2579   -11598.917    1809.6595    30.153064    30.153064    30.153064 
   52800    303.98077    -559.9802    27304.418    1.0956203    -9760.165   -11571.477    1811.3118    30.112326    30.112326    30.112326 
   52850    306.48775    104.27725    27185.305    1.1004207   -9755.1955   -11581.445    1826.2499    30.068475    30.068475    30.068475 
   52900    310.62584    831.01891     27089.18    1.1043255   -9755.6517   -11606.559    1850.9073    30.032993    30.032993    30.032993 
   52950    301.74776    1253.7896    27044.953    1.1061314   -9768.9219   -11566.928    1798.0061     30.01664     30.01664     30.01664 
   53000    304.72768    593.06499    27053.423    1.1057851    -9795.597   -11611.359    1815.7623    30.019773    30.019773    30.019773 
   53050    298.26273   -231.97172    27085.271    1.1044849   -9819.3747   -11596.615      1777.24    30.031549    30.031549    30.031549 
   53100    295.57288     185.1775    27113.122    1.1033504   -9834.3014   -11595.514    1761.2122    30.041838    30.041838    30.041838 
   53150    300.02562    674.27661    27145.036    1.1020532   -9826.1765   -11613.921    1787.7445    30.053621    30.053621    30.053621 
   53200    305.97577    451.08641     27198.32    1.0998941   -9841.9788   -11665.178    1823.1992    30.073273    30.073273    30.073273 
   53250    297.87396     2.951692    27270.281    1.0969917    -9872.361   -11647.284    1774.9235    30.099772    30.099772    30.099772 
   53300    286.53023    106.86493    27338.507    1.0942541   -9878.5247   -11585.855    1707.3303    30.124853    30.124853    30.124853 
   53350    296.70453   -623.27137    27393.468    1.0920586   -9876.3151    -11644.27    1767.9553    30.145027    30.145027    30.145027 
   53400    295.74056   -501.08474    27419.254    1.0910316   -9860.1761   -11622.387    1762.2113    30.154483    30.154483    30.154483 
   53450     300.4135   -332.81424    27415.582    1.0911777   -9822.7599   -11612.816    1790.0557    30.153136    30.153136    30.153136 
   53500     308.9786   -218.07171    27395.352    1.0919835   -9792.3886   -11633.481     1841.092    30.145718    30.145718    30.145718 
   53550    305.95715   -15.304773     27371.92    1.0929183   -9800.0791   -11623.167    1823.0883    30.137121    30.137121    30.137121 
   53600    298.81864   -31.337961     27352.92    1.0936775   -9799.8922   -11580.445    1780.5525    30.130146    30.130146    30.130146 
   53650     301.9236    150.92226    27334.749    1.0944045   -9791.9845   -11591.038    1799.0538    30.123472    30.123472    30.123472 
   53700    309.97952   -124.30969    27315.762    1.0951652   -9805.8535    -11652.91    1847.0562    30.116496    30.116496    30.116496 
   53750    296.55861    130.78465    27297.867    1.0958832   -9857.8551   -11624.941    1767.0858    30.109918    30.109918    30.109918 
   53800    299.85086    74.723232    27290.338    1.0961855   -9890.7605   -11677.464    1786.7031     30.10715     30.10715     30.10715 
   53850    303.84484   -356.46566    27285.647    1.0963739   -9899.1994   -11709.701    1810.5018    30.105424    30.105424    30.105424 
   53900    294.27147    -674.7467    27269.683    1.0970158   -9919.3161   -11672.774    1753.4575    30.099552    30.099552    30.099552 
   53950    297.14684   -266.26449     27233.51    1.0984729   -9892.4066   -11662.997    1770.5908    30.086237    30.086237    30.086237 
   54000    303.07534    426.05089    27188.488    1.1002919   -9870.7374   -11676.654    1805.9166    30.069649    30.069649    30.069649 
   54050    294.85868    813.70143    27160.607    1.1014214   -9857.7321   -11614.689    1756.9565    30.059366    30.059366    30.059366 
   54100    302.68076    734.97133    27166.109    1.1011983   -9815.5017   -11619.067    1803.5655    30.061396    30.061396    30.061396 
   54150    307.22649   -15.622041    27201.468    1.0997669   -9797.6207   -11628.273    1830.6518    30.074433    30.074433    30.074433 
   54200    315.55141   -428.93413    27237.624     1.098307   -9782.1113   -11662.368    1880.2571    30.087752    30.087752    30.087752 
   54250    303.51087    399.53221    27268.697    1.0970554   -9775.2807   -11583.793    1808.5118    30.099189    30.099189    30.099189 
   54300    311.08937   -873.78635    27310.217    1.0953876   -9787.8542   -11641.524    1853.6693    30.114458    30.114458    30.114458 
   54350    292.29208   -813.93002     27326.51    1.0947345   -9856.1543   -11597.817    1741.6631    30.120445    30.120445    30.120445 
   54400    289.11676   -392.85345     27305.33    1.0955837   -9909.3382   -11632.081    1722.7425    30.112661    30.112661    30.112661 
   54450    299.60763    57.694379    27262.419    1.0973081   -9909.0081   -11694.262    1785.2538    30.096879    30.096879    30.096879 
   54500    301.03159    443.88317    27224.928    1.0988192   -9900.0295   -11693.768    1793.7387    30.083076    30.083076    30.083076 
   54550    299.44735    388.49291    27209.766    1.0994315   -9909.5069   -11693.806    1784.2988    30.077491    30.077491    30.077491 
   54600    297.35148    863.01661    27212.397    1.0993252   -9915.1346   -11686.945    1771.8102     30.07846     30.07846     30.07846 
   54650    297.39954    400.58501    27244.153    1.0980438   -9916.3142   -11688.411    1772.0966    30.090156    30.090156    30.090156 
   54700    294.39619   -384.09066     27291.14    1.0961533   -9917.1428   -11671.343    1754.2007    30.107444    30.107444    30.107444 
   54750    297.00789   -798.87166    27325.532    1.0947737   -9886.2503   -11656.013    1769.7629    30.120086    30.120086    30.120086 
   54800    301.44088   -178.94004    27331.926    1.0945176   -9832.9692   -11629.147    1796.1775    30.122435    30.122435    30.122435 
   54850    303.82924    334.87704    27326.845    1.0947211    -9812.106   -11622.515    1810.4088    30.120568    30.120568    30.120568 
   54900    307.82444    355.87694    27335.523    1.0943735   -9822.9394   -11657.154    1834.2148    30.123756    30.123756    30.123756 
   54950    314.02709   -476.79848    27356.335     1.093541   -9815.7108   -11686.885    1871.1742      30.1314      30.1314      30.1314 
   55000    305.54268   -445.02287    27362.892    1.0932789   -9847.5458   -11668.164    1820.6186    30.133807    30.133807    30.133807 
   55050    301.43413    330.24728    27355.364    1.0935798   -9885.8136   -11681.951    1796.1372    30.131043    30.131043    30.131043 
   55100    306.12914   -353.92797    27357.565    1.0934918   -9907.4127   -11731.526    1824.1131    30.131851    30.131851    30.131851 
   55150    293.88458   -274.58896    27356.324    1.0935414   -9896.8373    -11647.99    1751.1522    30.131396    30.131396    30.131396 
   55200    299.14079   -32.712893    27337.686    1.0942869   -9874.0672   -11656.539    1782.4721    30.124551    30.124551    30.124551 
   55250    304.61444    569.83647    27318.085    1.0950721   -9877.9646   -11693.052    1815.0876     30.11735     30.11735     30.11735 
   55300    305.78913    1106.5496    27327.338    1.0947013   -9851.4905   -11673.578    1822.0871     30.12075     30.12075     30.12075 
   55350    303.10819    429.47602    27384.834    1.0924029   -9845.7897   -11651.902    1806.1124    30.141859    30.141859    30.141859 
   55400    297.86959   -683.98375     27458.19    1.0894845   -9810.8197   -11585.717    1774.8975    30.168749    30.168749    30.168749 
   55450    299.27555     -626.555    27500.074    1.0878252   -9776.5303   -11559.805     1783.275    30.184081    30.184081    30.184081 
   55500    297.99978   -290.92712    27508.843    1.0874784    -9740.344   -11516.017    1775.6732    30.187289    30.187289    30.187289 
   55550    303.69402   -212.84556    27498.241    1.0878977   -9717.2233   -11526.826    1809.6031     30.18341     30.18341     30.18341 
   55600     308.1755    42.167735    27477.634    1.0887136   -9742.3494   -11578.656    1836.3067    30.175868    30.175868    30.175868 
   55650    301.45012    521.40418    27459.466    1.0894339   -9758.8053   -11555.038    1796.2325    30.169216    30.169216    30.169216 
   55700    304.88614    131.58988    27451.652     1.089744   -9777.8904   -11594.597    1816.7065    30.166354    30.166354    30.166354 
   55750    307.52749   -525.04073    27442.281    1.0901161   -9811.8822   -11644.328    1832.4454    30.162921    30.162921    30.162921 
   55800    297.27775   -159.62437    27421.143    1.0909565   -9841.3033   -11612.674    1771.3709    30.155175    30.155175    30.155175 
   55850    301.10882    -732.2001    27390.192    1.0921892      -9858.1   -11652.299    1794.1989    30.143825    30.143825    30.143825 
   55900    296.08885      131.026    27338.803    1.0942422   -9851.9698   -11616.256    1764.2867    30.124961    30.124961    30.124961 
   55950    308.77535    385.46249    27294.186     1.096031   -9856.2582   -11696.139     1839.881    30.108564    30.108564    30.108564 
   56000    294.31382    185.83106    27267.585    1.0971002    -9875.161   -11628.871    1753.7099     30.09878     30.09878     30.09878 
   56050     298.7265   -99.043396    27248.934    1.0978511   -9884.4866    -11664.49    1780.0034    30.091916    30.091916    30.091916 
   56100    295.23736    144.82636    27232.732    1.0985043   -9914.9316   -11674.145     1759.213    30.085951    30.085951    30.085951 
   56150    296.79871    395.53529    27223.062    1.0988945   -9936.4912   -11705.008    1768.5165    30.082389    30.082389    30.082389 
   56200    297.65537    568.42203    27230.796    1.0985824   -9957.6927   -11731.314     1773.621    30.085238    30.085238    30.085238 
   56250    299.76396   -396.15041    27263.133    1.0972794   -9979.0174   -11765.203    1786.1853    30.097142    30.097142    30.097142 
   56300    288.17715   -667.31329    27289.864    1.0962046   -10012.204   -11729.348    1717.1437    30.106975    30.106975    30.106975 
   56350    282.92436   -792.29944    27286.969    1.0963209   -10040.381   -11726.225    1685.8442     30.10591     30.10591     30.10591 
   56400    287.78318   -236.65296     27250.83    1.0977748   -10014.089   -11728.885    1714.7961    30.092614    30.092614    30.092614 
   56450    301.16569    355.34836    27204.535    1.0996429   -9953.6177   -11748.155    1794.5377    30.075563    30.075563    30.075563 
   56500    305.22145    522.85437    27177.953    1.1007184   -9924.1059    -11742.81    1818.7045    30.065764    30.065764    30.065764 
   56550    298.91787    629.97367    27179.865     1.100641   -9908.6707   -11689.815    1781.1438    30.066469    30.066469    30.066469 
   56600    304.99856    81.439302    27210.765    1.0993911   -9906.2285   -11723.605    1817.3764    30.077859    30.077859    30.077859 
   56650    300.21919   -158.11647    27257.243    1.0975165   -9887.4942   -11676.392    1788.8978    30.094974    30.094974    30.094974 
   56700    299.99415    -196.7874    27301.934    1.0957199   -9861.6171   -11649.174    1787.5569    30.111413    30.111413    30.111413 
   56750    304.67854    475.84182    27342.664    1.0940877   -9823.6804    -11639.15    1815.4695     30.12638     30.12638     30.12638 
   56800    305.42774    -144.8341    27406.261    1.0915489   -9829.0401   -11648.974    1819.9337    30.149719    30.149719    30.149719 
   56850    306.15954   -614.16058    27467.543    1.0891136   -9848.6309   -11672.925    1824.2942    30.172174    30.172174    30.172174 
   56900    299.84174   -200.17142    27506.585    1.0875677   -9905.4405   -11692.089    1786.6488    30.186463    30.186463    30.186463 
   56950    293.55548    116.69751    27535.459    1.0864272    -9941.416   -11690.607    1749.1912    30.197021    30.197021    30.197021 
   57000    295.35296   -302.29613    27558.988    1.0854997   -9952.4653   -11712.367    1759.9017     30.20562     30.20562     30.20562 
   57050    295.46865    -108.0445    27567.954    1.0851467   -9959.3538   -11719.945    1760.5911    30.208895    30.208895    30.208895 
   57100    297.79524   -179.57673    27568.892    1.0851097   -9945.2625   -11719.717    1774.4544    30.209238    30.209238    30.209238 
   57150    298.12987   -401.07356    27563.657    1.0853158   -9929.6574   -11706.106    1776.4483    30.207326    30.207326    30.207326 
   57200    299.31536   -255.42671    27547.584    1.0859491   -9883.3026   -11666.815    1783.5123    30.201453    30.201453    30.201453 
   57250    298.90669    25.984528    27515.802    1.0872034   -9860.5595   -11641.637    1781.0771    30.189834    30.189834    30.189834 
   57300    298.98847   -143.60714    27469.549     1.089034    -9865.141   -11646.705    1781.5645    30.172908    30.172908    30.172908 
   57350    303.00373   -274.10502    27412.556    1.0912982    -9866.551   -11672.041    1805.4899    30.152027    30.152027    30.152027 
   57400    300.57011    9.6805934     27350.17    1.0937874   -9867.9183   -11658.907    1790.9889    30.129136    30.129136    30.129136 
   57450    304.58301   -31.305288    27285.284    1.0963885   -9862.9665   -11677.867    1814.9003    30.105291    30.105291    30.105291 
   57500    305.83753    587.73659    27221.618    1.0989528   -9874.8386   -11697.214    1822.3755    30.081857    30.081857    30.081857 
   57550    297.76112    558.67535    27182.516    1.1005336   -9922.2945   -11696.546    1774.2511    30.067447    30.067447    30.067447 
   57600    303.63738   -194.01658    27164.347    1.1012697   -9952.4756   -11761.741    1809.2656    30.060746    30.060746    30.060746 
   57650    295.75991    166.27984    27148.844    1.1018986   -9975.2027   -11737.529    1762.3266    30.055026    30.055026    30.055026 
   57700     296.9075    87.138718    27141.071    1.1022142   -9968.2389   -11737.404    1769.1647    30.052158    30.052158    30.052158 
   57750    298.21206      442.854    27136.844    1.1023858   -9984.9058   -11761.844    1776.9381    30.050598    30.050598    30.050598 
   57800    290.29888    809.06953    27144.838    1.1020612   -9956.8368   -11686.623    1729.7863    30.053548    30.053548    30.053548 
   57850     296.6852   -10.414758    27174.911    1.1008416   -9939.3898    -11707.23    1767.8401    30.064643    30.064643    30.064643 
   57900    301.44976   -807.59927    27206.655    1.0995572   -9897.4432   -11693.674    1796.2304    30.076344    30.076344    30.076344 
   57950    295.21717    -365.1191    27212.574     1.099318   -9859.9032   -11618.996    1759.0926    30.078525    30.078525    30.078525 
   58000    301.71308   -228.40535    27192.225    1.1001407   -9864.3847   -11662.184    1797.7994    30.071026    30.071026    30.071026 
   58050    301.46959   -464.36154    27159.293    1.1014746   -9845.2625   -11641.611    1796.3485    30.058882    30.058882    30.058882 
   58100    300.94072    263.45005    27115.841    1.1032397    -9837.966   -11631.163    1793.1972    30.042843    30.042843    30.042843 
   58150    298.15829    663.27374    27075.211    1.1048953   -9849.5868   -11626.204    1776.6177     30.02783     30.02783     30.02783 
   58200    299.45293    469.07802    27052.274    1.1058321   -9871.0442   -11655.376     1784.332    30.019348    30.019348    30.019348 
   58250    294.40116    433.95033    27045.276    1.1061182   -9924.8926   -11679.123    1754.2303    30.016759    30.016759    30.016759 
   58300     296.6193    288.21861    27059.266    1.1055463   -9936.9652   -11704.413    1767.4474    30.021934    30.021934    30.021934 
   58350    297.49954    151.41098    27089.765    1.1043017   -9943.3512   -11716.044    1772.6925     30.03321     30.03321     30.03321 
   58400    290.58493   -149.34084    27129.126    1.1026995   -9944.9539   -11676.445    1731.4908    30.047748    30.047748    30.047748 
   58450    291.31232    370.13124    27172.819    1.1009263   -9894.3416   -11630.167    1735.8251    30.063871    30.063871    30.063871 
   58500    299.39031   -514.26876    27224.917    1.0988196   -9872.5156   -11656.474    1783.9589    30.083073    30.083073    30.083073 
   58550    299.54711   -126.30502    27262.007    1.0973247   -9868.5679   -11653.461    1784.8932    30.096727    30.096727    30.096727 
   58600    298.27453    104.82694    27291.043    1.0961572   -9866.0466   -11643.357    1777.3104    30.107409    30.107409    30.107409 
   58650    303.95475    291.10184    27318.698    1.0950475   -9877.7811   -11688.938    1811.1567    30.117575    30.117575    30.117575 
   58700    305.34797   -317.07739    27357.061    1.0935119   -9861.5691   -11681.027    1819.4584    30.131666    30.131666    30.131666 
   58750    302.60836    -559.0326    27389.231    1.0922276   -9878.4845   -11681.619    1803.1341    30.143472    30.143472    30.143472 
   58800    297.97459   -221.41203    27406.397    1.0915434   -9906.4902   -11682.013    1775.5231    30.149769    30.149769    30.149769 
   58850    296.46713   -43.339204    27421.627    1.0909372     -9938.95   -11705.491    1766.5407    30.155352    30.155352    30.155352 
   58900    283.82372   -156.93612     27433.77    1.0904543   -9986.2446   -11677.448    1691.2032    30.159803    30.159803    30.159803 
   58950    299.03383   -188.77819     27435.43    1.0903883   -9981.5885   -11763.423    1781.8347    30.160411    30.160411    30.160411 
   59000    290.96902    -116.3113    27421.939    1.0909248    -9987.496   -11721.275    1733.7794    30.155467    30.155467    30.155467 
   59050    301.40373    -752.6191     27394.67    1.0920107   -9956.4417   -11752.398    1795.9561    30.145467    30.145467    30.145467 
   59100    305.47684   -365.41736    27345.619    1.0939695   -9903.3496   -11723.576    1820.2263    30.127465    30.127465    30.127465 
   59150    302.91896   -228.57948    27280.146    1.0965951   -9859.8898   -11664.875    1804.9848    30.103401    30.103401    30.103401 
   59200    310.25424   -76.795018    27199.131    1.0998614   -9844.2697   -11692.963    1848.6931    30.073571    30.073571    30.073571 
   59250    295.99159    1715.4599    27118.979    1.1031121     -9835.68   -11599.387    1763.7071    30.044002    30.044002    30.044002 
   59300     302.5088    770.59106    27087.852    1.1043797   -9845.9673   -11648.508    1802.5408    30.032503    30.032503    30.032503 
   59350    297.06233    684.01483    27090.016    1.1042914   -9868.2443   -11638.332    1770.0873    30.033302    30.033302    30.033302 
   59400    295.34029    218.13262    27110.257     1.103467   -9883.9504   -11643.777    1759.8263     30.04078     30.04078     30.04078 
   59450     296.7447   -50.042669    27139.941    1.1022601   -9904.8707   -11673.065    1768.1946    30.051741    30.051741    30.051741 
   59500    300.07184   -113.42135    27172.616    1.1009346   -9940.9344   -11728.954    1788.0199    30.063796    30.063796    30.063796 
   59550    301.14952   -78.695958    27203.213    1.0996963    -9943.368   -11737.809    1794.4414    30.075076    30.075076    30.075076 
   59600    289.73656   -282.83044    27232.328    1.0985206   -9991.3199   -11717.756    1726.4356    30.085802    30.085802    30.085802 
   59650    287.64147   -9.2259783    27257.815    1.0974934   -10031.427   -11745.379    1713.9518    30.095185    30.095185    30.095185 
   59700    287.52366     107.0136    27283.009      1.09648   -10047.926   -11761.176    1713.2498    30.104454    30.104454    30.104454 
   59750    297.63888   -637.72753    27305.883    1.0955614   -10047.374   -11820.896    1773.5227    30.112865    30.112865    30.112865 
   59800    299.15385   -388.32151     27316.39    1.0951401    -10015.74    -11798.29    1782.5499    30.116727    30.116727    30.116727 
   59850    298.03765    197.89457    27318.249    1.0950655   -9959.1863   -11735.085    1775.8989     30.11741     30.11741     30.11741 
   59900    298.56697    231.09285    27325.453    1.0947768   -9937.0555   -11716.108    1779.0529    30.120057    30.120057    30.120057 
   59950    302.94335   -89.721788    27344.747    1.0940044   -9918.5508   -11723.681    1805.1301    30.127144    30.127144    30.127144 
SHAKE stats (type/ave/delta) on step 60000
  1 0.957954 0.00188274
  1 104.404 0.0732606
   60000    297.91852   -328.65331    27363.589     1.093251   -9900.0772   -11675.266     1775.189    30.134063    30.134063    30.134063 
   60050    306.18879   -411.34663    27362.463    1.0932961   -9897.3703   -11721.839    1824.4685    30.133649    30.133649    30.133649 
   60100    298.79189    60.386648     27345.06    1.0939919   -9890.2174   -11670.611    1780.3931    30.127259    30.127259    30.127259 
   60150    296.80213    63.835554    27316.596    1.0951318   -9889.0355   -11657.572    1768.5369    30.116802    30.116802    30.116802 
   60200    302.65472    57.548202    27274.224    1.0968331   -9906.5389   -11709.949    1803.4103    30.101223    30.101223    30.101223 
   60250    301.72547    365.73403    27230.105    1.0986102   -9946.2076   -11744.081    1797.8732    30.084983    30.084983    30.084983 
   60300    302.99396    653.62509    27209.094    1.0994586   -9978.4214   -11783.853    1805.4317    30.077243    30.077243    30.077243 
   60350    294.16083    203.51186    27218.129    1.0990937   -10002.314   -11755.112    1752.7983    30.080572    30.080572    30.080572 
   60400    293.34779    47.968578    27232.741    1.0985039   -10035.127   -11783.081    1747.9537    30.085954    30.085954    30.085954 
   60450    303.32703    -435.8739    27245.345    1.0979957   -10021.215   -11828.632    1807.4164    30.090595    30.090595    30.090595 
   60500    296.69297    7.2460948    27245.502    1.0979894   -10033.493   -11801.379    1767.8864    30.090653    30.090653    30.090653 
   60550    293.47175   -127.48418    27248.008    1.0978884   -10051.961   -11800.653    1748.6923    30.091575    30.091575    30.091575 
   60600    299.61674   -468.90284    27248.012    1.0978883   -10023.021   -11808.329    1785.3081    30.091576    30.091576    30.091576 
   60650    297.25529    72.451517    27236.461    1.0983539   -9987.3847   -11758.622     1771.237    30.087324    30.087324    30.087324 
   60700    296.51281    69.856032     27226.02    1.0987751   -9966.4841   -11733.297    1766.8129    30.083479    30.083479    30.083479 
   60750    303.86738     183.6355    27218.584    1.0990753   -9936.4034    -11747.04    1810.6361    30.080739    30.080739    30.080739 
   60800    303.04829    342.01568    27223.484    1.0988774   -9940.7293   -11746.485    1805.7554    30.082545    30.082545    30.082545 
   60850    303.84268     486.3229     27242.12    1.0981257   -9948.8155   -11759.304     1810.489    30.089407    30.089407    30.089407 
   60900    299.44005    35.796483    27276.876    1.0967265   -9955.6383   -11739.894    1784.2553    30.102198    30.102198    30.102198 
   60950    294.02481    348.88415    27317.414     1.095099   -9981.8803   -11733.868    1751.9878    30.117103    30.117103    30.117103 
   61000    298.61821   -107.18296    27369.971    1.0929961    -9994.816   -11774.174    1779.3582    30.136405    30.136405    30.136405 
   61050    295.10079   -590.72972    27424.848    1.0908091   -9979.9639   -11738.363    1758.3991    30.156533    30.156533    30.156533 
   61100    299.17014   -373.48104    27458.238    1.0894826   -9943.5004   -11726.147     1782.647    30.168767    30.168767    30.168767 
   61150     304.1422   -595.96228    27475.034    1.0888166   -9908.5299   -11720.804    1812.2737    30.174917    30.174917    30.174917 
   61200    300.89812   -629.32608    27466.786    1.0891436   -9885.7317   -11678.675    1792.9433    30.171897    30.171897    30.171897 
   61250    306.23099    -520.4055    27429.595    1.0906203   -9873.6866   -11698.407      1824.72    30.158273    30.158273    30.158273 
   61300    309.10465   -267.48519    27371.674    1.0929282   -9861.5696   -11703.413    1841.8431     30.13703     30.13703     30.13703 
   61350    306.04436   -45.281253    27302.227    1.0957082    -9889.362    -11712.97    1823.6079    30.111521    30.111521    30.111521 
   61400    304.11712    50.352638    27230.801    1.0985822   -9902.2397   -11714.364    1812.1242     30.08524     30.08524     30.08524 
   61450    301.40606    479.51468     27165.99    1.1012031   -9923.8005    -11719.77      1795.97    30.061352    30.061352    30.061352 
   61500     293.0622    1061.4073    27117.671    1.1031653   -9925.7496   -11672.002    1746.2519    30.043519    30.043519    30.043519 
   61550    299.54897    309.32465    27094.301    1.1041168   -9922.2783   -11707.183    1784.9042    30.034886    30.034886    30.034886 
   61600    301.88223    -203.7224     27080.12     1.104695    -9919.277   -11718.084    1798.8073    30.029645    30.029645    30.029645 
   61650    294.27286    415.15749    27064.306    1.1053405   -9939.8463   -11693.312    1753.4658    30.023798    30.023798    30.023798 
   61700    313.23632     536.0923    27062.212     1.105426   -9919.8403   -11786.303    1866.4623    30.023024    30.023024    30.023024 
   61750     308.2349    394.06209    27090.598    1.1042677   -9939.3856   -11776.046    1836.6606    30.033517    30.033517    30.033517 
   61800    292.68499    477.51896    27150.295    1.1018397   -9975.2788   -11719.283    1744.0043    30.055562    30.055562    30.055562 
   61850    291.38541     135.2032    27237.284    1.0983207   -10005.171   -11741.432    1736.2606    30.087627    30.087627    30.087627 
   61900    294.61379   -601.31856    27329.296    1.0946229   -10043.543   -11799.041    1755.4973    30.121469    30.121469    30.121469 
   61950    289.39364   -1122.6222    27395.515     1.091977   -10034.179   -11758.571    1724.3923    30.145778    30.145778    30.145778 
   62000    288.70038   -439.73685    27414.668    1.0912141    -10000.01   -11720.271    1720.2614    30.152801    30.152801    30.152801 
   62050    303.31565   -139.33625    27407.917    1.0914829   -9957.2561   -11764.605    1807.3486    30.150326    30.150326    30.150326 
   62100    297.34723   -105.22826    27398.082    1.0918747   -9927.9246    -11699.71    1771.7849    30.146719    30.146719    30.146719 
   62150    305.86136   -205.53177    27380.793    1.0925642   -9909.5869   -11732.104    1822.5175    30.140377    30.140377    30.140377 
   62200    301.18213    460.22259    27360.814    1.0933619   -9916.3446    -11710.98    1794.6357    30.133044    30.133044    30.133044 
   62250    303.81655     535.5182    27359.718    1.0934058     -9907.51   -11717.843    1810.3332    30.132641    30.132641    30.132641 
   62300    301.28808   -91.572804    27380.502    1.0925758   -9924.1879   -11719.455     1795.267     30.14027     30.14027     30.14027 
   62350    300.11617    169.64114    27403.629    1.0916537   -9941.4288   -11729.713     1788.284    30.148754    30.148754    30.148754 
   62400    294.18469   -381.21655     27432.15    1.0905187   -9970.5398    -11723.48    1752.9404    30.159209    30.159209    30.159209 
   62450    286.51838   -205.23662    27449.334     1.089836   -10003.341     -11710.6    1707.2597    30.165505    30.165505    30.165505 
   62500    297.16781    122.72128    27453.319    1.0896778   -9994.0187   -11764.734    1770.7158    30.166965    30.166965    30.166965 
   62550     301.5629   -403.02897     27456.93    1.0895345   -9987.4224   -11784.327    1796.9046    30.168288    30.168288    30.168288 
   62600    299.78856   -727.57751    27450.173    1.0898027   -9938.3284    -11724.66    1786.3319    30.165812    30.165812    30.165812 
   62650    297.21989    47.174535    27422.514    1.0909019   -9899.6641    -11670.69    1771.0261    30.155677    30.155677    30.155677 
   62700    302.86292    250.68059    27389.738    1.0922073   -9867.0161   -11671.667    1804.6509    30.143658    30.143658    30.143658 
   62750    300.66992    122.01404    27362.831    1.0932814    -9870.191   -11661.775    1791.5836    30.133784    30.133784    30.133784 
   62800    306.54659   -186.57089    27336.232    1.0943452   -9881.1441   -11707.745    1826.6005    30.124017    30.124017    30.124017 
   62850    311.02844    7.3331527    27312.439    1.0952985   -9897.3807   -11750.687    1853.3063    30.115274    30.115274    30.115274 
   62900    305.64679     302.8745    27301.297    1.0957455   -9929.8409    -11751.08     1821.239    30.111179    30.111179    30.111179 
   62950    299.62571   -248.45492    27304.378    1.0956218   -9966.3067   -11751.668    1785.3615    30.112312    30.112312    30.112312 
   63000    296.48691    448.58806    27304.135    1.0956316   -9974.9651   -11741.624    1766.6585    30.112222    30.112222    30.112222 
   63050    295.46245   -143.30475    27314.936    1.0951983   -9980.1868   -11740.741    1760.5542    30.116193    30.116193    30.116193 
   63100    298.71239   -737.65353    27319.367    1.0950207   -9979.7772   -11759.697    1779.9194    30.117821    30.117821    30.117821 
   63150    304.20426   -294.08673    27297.929    1.0958807   -9976.3321   -11788.976    1812.6434    30.109941    30.109941    30.109941 
   63200    298.61853   -10.423586    27266.886    1.0971283   -9962.4871   -11741.847    1779.3601    30.098523    30.098523    30.098523 
   63250    302.55914    278.50739    27230.045    1.0986127   -9933.8158   -11736.657    1802.8408    30.084961    30.084961    30.084961 
   63300    310.72184    615.85119    27201.844    1.0997517   -9925.9888   -11777.468    1851.4793    30.074571    30.074571    30.074571 
   63350    297.07116    437.68247    27201.151    1.0997797   -9932.7642   -11702.904    1770.1399    30.074316    30.074316    30.074316 
   63400    297.61244    428.73708    27214.815    1.0992275   -9963.1826   -11736.548    1773.3652    30.079351    30.079351    30.079351 
   63450    292.53787    267.06799    27239.342    1.0982377    -10011.29   -11754.418    1743.1276    30.088384    30.088384    30.088384 
   63500    291.92066   -387.12972    27268.258    1.0970731   -10030.979   -11770.429    1739.4499    30.099028    30.099028    30.099028 
   63550     304.9031    -334.0991    27288.063    1.0962769   -10030.773    -11847.58    1816.8076    30.106313    30.106313    30.106313 
   63600    296.95323   -54.933312    27302.047    1.0957154   -10011.684   -11781.121    1769.4372    30.111455    30.111455    30.111455 
   63650    303.95575   -509.30586    27310.914    1.0953596   -9988.8274    -11799.99    1811.1627    30.114714    30.114714    30.114714 
   63700    304.24881    297.61912     27309.06     1.095434   -9957.2049   -11770.114    1812.9089    30.114033    30.114033    30.114033 
   63750    307.39117     205.8021    27319.513    1.0950149   -9935.8658   -11767.499    1831.6331    30.117874    30.117874    30.117874 
   63800    306.50508    31.621497    27346.687    1.0939268   -9919.7404   -11746.094    1826.3532    30.127857    30.127857    30.127857 
   63850    307.56876   -32.841687    27386.114    1.0923519   -9888.1725   -11720.864    1832.6913    30.142329    30.142329    30.142329 
   63900    304.02276    415.46991    27424.983    1.0908037   -9839.1113   -11650.673     1811.562    30.156582    30.156582    30.156582 
   63950    304.68983    222.89761     27471.08    1.0889733   -9795.4507   -11610.988    1815.5368    30.173469    30.173469    30.173469 
   64000     304.3481   -642.48573    27523.913     1.086883   -9783.8479   -11597.348    1813.5006      30.1928      30.1928      30.1928 
   64050    307.26528   -497.62721    27550.447    1.0858362   -9779.6337   -11610.517     1830.883    30.202499    30.202499    30.202499 
   64100    313.18831    198.17643    27559.666     1.085473   -9807.5197   -11673.696    1866.1762    30.205868    30.205868    30.205868 
   64150    306.30994   -313.43072    27581.902    1.0845979   -9815.0561   -11640.246    1825.1904    30.213989    30.213989    30.213989 
   64200    302.20387   -333.96691    27600.027    1.0838856   -9844.8294   -11645.553    1800.7238    30.220606    30.220606    30.220606 
   64250    302.15996   -283.72747    27607.294    1.0836003   -9856.0279    -11656.49    1800.4622    30.223258    30.223258    30.223258 
   64300    304.11685   -544.36595    27598.785    1.0839344   -9864.8421   -11676.965    1812.1226    30.220153    30.220153    30.220153 
   64350    302.59856   -332.17722    27570.714     1.085038   -9897.5779   -11700.654    1803.0757    30.209903    30.209903    30.209903 
   64400    299.36949   -112.31479    27524.698     1.086852   -9944.2452    -11728.08    1783.8348    30.193087    30.193087    30.193087 
   64450    294.90415   -178.09095    27463.948    1.0892561   -9956.9197   -11714.147    1757.2275    30.170858    30.170858    30.170858 
   64500    301.21523   -335.39105    27394.025    1.0920364   -9959.2639   -11754.097    1794.8329    30.145231    30.145231    30.145231 
   64550    296.35033    383.53422    27314.668    1.0952091   -9945.0995   -11710.944    1765.8447    30.116094    30.116094    30.116094 
   64600     298.9141    793.48144    27242.886    1.0980948   -9921.0206   -11702.142    1781.1213     30.08969     30.08969     30.08969 
   64650    301.20092    494.82096    27195.936    1.0999906   -9923.1601   -11717.908    1794.7476    30.072394    30.072394    30.072394 
   64700    308.91865    723.45995    27174.693    1.1008504   -9892.6723   -11733.407    1840.7348    30.064562    30.064562    30.064562 
   64750    306.28366     607.4769    27190.083    1.1002274   -9861.7224   -11686.756    1825.0338    30.070236    30.070236    30.070236 
   64800    310.06032     164.3502    27236.313    1.0983599   -9807.3209   -11654.859    1847.5376    30.087269    30.087269    30.087269 
   64850    315.06397   -130.11961    27293.706    1.0960502   -9796.4967   -11673.849    1877.3526    30.108388    30.108388    30.108388 
   64900    305.65796    237.97298    27352.929    1.0936771    -9820.244   -11641.549    1821.3055    30.130149    30.130149    30.130149 
   64950    310.04741   -457.54385    27416.503    1.0911411   -9844.6731   -11692.134    1847.4607    30.153474    30.153474    30.153474 
   65000    308.61362   -1154.8192    27463.002    1.0892936   -9882.8994   -11721.817    1838.9172    30.170511    30.170511    30.170511 
   65050     299.0111   -684.80857    27468.571    1.0890728   -9908.5668   -11690.266    1781.6993     30.17255     30.17255     30.17255 
   65100    307.43606    -95.69333    27446.204    1.0899603   -9921.8864   -11753.787    1831.9006    30.164359    30.164359    30.164359 
   65150    300.81605    440.85137    27424.456    1.0908246   -9949.7524   -11742.207    1792.4543    30.156389    30.156389    30.156389 
   65200    299.39536    169.81655    27430.122    1.0905993   -9965.1786   -11749.168     1783.989    30.158466    30.158466    30.158466 
   65250    295.40119    158.97673    27453.845     1.089657   -9964.4009    -11724.59    1760.1891    30.167158    30.167158    30.167158 
   65300    305.07489   -314.83576    27481.976    1.0885415   -9970.8649   -11788.696    1817.8312    30.177458    30.177458    30.177458 
   65350    294.13942   -209.50484    27496.902    1.0879507   -9985.8748   -11738.546    1752.6707     30.18292     30.18292     30.18292 
   65400    297.36371   -498.13051    27497.116    1.0879422   -10002.296    -11774.18    1771.8831    30.182999    30.182999    30.182999 
   65450    294.60563    130.39777    27487.655    1.0883167   -10024.642    -11780.09    1755.4487    30.179536    30.179536    30.179536 
   65500    295.63309    43.655137    27477.544    1.0887171   -10025.915   -11787.486    1761.5709    30.175836    30.175836    30.175836 
   65550    298.46387   -99.084631    27465.515    1.0891939   -10029.095   -11807.534    1778.4385    30.171432    30.171432    30.171432 
   65600      294.959   -111.19378    27449.895    1.0898137   -10029.797   -11787.351    1757.5543    30.165711    30.165711    30.165711 
   65650    295.44351    8.5568561    27434.033    1.0904439   -9996.4932   -11756.934    1760.4413    30.159899    30.159899    30.159899 
   65700    297.25465   -186.99482    27421.387    1.0909467   -9950.1033   -11721.337    1771.2332    30.155264    30.155264    30.155264 
   65750    300.82722   -628.64346    27403.827    1.0916458   -9910.1262   -11702.647    1792.5209    30.148826    30.148826    30.148826 
   65800    298.04929    168.19243    27365.512    1.0931742   -9887.9873   -11663.956    1775.9682    30.134769    30.134769    30.134769 
   65850    307.33819    263.17758    27326.927    1.0947178    -9872.236   -11703.553    1831.3174    30.120599    30.120599    30.120599 
   65900    292.31484    948.89267    27303.678    1.0956499   -9871.1173   -11612.916    1741.7987    30.112054    30.112054    30.112054 
   65950    293.70666    504.46608     27306.45    1.0955387   -9861.5183    -11611.61     1750.092    30.113073    30.113073    30.113073 
   66000    294.60585   -95.610991    27322.307    1.0949029   -9851.2705    -11606.72      1755.45    30.118901    30.118901    30.118901 
   66050    304.91125   -75.442271    27332.147    1.0945087   -9841.4772   -11658.333    1816.8562    30.122516    30.122516    30.122516 
   66100     307.0268   -281.30335    27334.314    1.0944219   -9796.2995   -11625.761    1829.4619    30.123313    30.123313    30.123313 
   66150    307.84199   -21.761683    27323.394    1.0948593   -9798.2144   -11632.534    1834.3194      30.1193      30.1193      30.1193 
   66200    309.91059    382.96638     27306.92    1.0955198   -9804.4436   -11651.089    1846.6454    30.113246    30.113246    30.113246 
   66250    301.05037    405.68829    27301.892    1.0957216   -9881.6326   -11675.483    1793.8505    30.111398    30.111398    30.111398 
   66300    297.54244    132.50854    27311.876    1.0953211   -9906.4894   -11679.438    1772.9481    30.115068    30.115068    30.115068 
   66350    297.63313   -875.94816    27322.233    1.0949059   -9924.2256   -11697.714    1773.4885    30.118874    30.118874    30.118874 
   66400    292.70824   -506.12998    27293.079    1.0960754   -9943.1537   -11687.296    1744.1428    30.108157    30.108157    30.108157 
   66450    298.72078   -28.916416    27229.421    1.0986378   -9953.3806    -11733.35    1779.9694    30.084731    30.084731    30.084731 
   66500    294.61461      746.171    27159.079    1.1014833   -9962.6667   -11718.169    1755.5022    30.058803    30.058803    30.058803 
   66550     296.5415    575.29136    27110.651    1.1034509    -9975.559   -11742.543    1766.9839    30.040926    30.040926    30.040926 
   66600    301.16196    180.69824    27079.344    1.1047267   -10003.665   -11798.181    1794.5155    30.029358    30.029358    30.029358 
   66650    296.48909    582.89113    27062.452    1.1054162   -10029.685   -11796.357    1766.6716    30.023112    30.023112    30.023112 
   66700    290.68806    492.00382    27064.569    1.1053297   -10034.471   -11766.576    1732.1053    30.023895    30.023895    30.023895 
   66750    302.55982    467.75349    27083.472    1.1045583   -10036.462   -11839.306    1802.8448    30.030884    30.030884    30.030884 
   66800    301.02076    89.583872    27123.406     1.102932   -10041.345   -11835.019    1793.6741    30.045636    30.045636    30.045636 
   66850     292.8286    107.86084    27169.076     1.101078   -10076.701   -11821.561      1744.86    30.062491    30.062491    30.062491 
   66900    286.93032   -369.56871    27220.549    1.0989959   -10097.263   -11806.978    1709.7143    30.081463    30.081463    30.081463 
   66950    293.49028   -266.22499     27264.19    1.0972368   -10070.792   -11819.594    1748.8027    30.097531    30.097531    30.097531 
   67000    301.73697   -679.69655    27294.966    1.0959996   -10005.886   -11803.828    1797.9417    30.108851    30.108851    30.108851 
   67050    292.62289   -190.94804    27308.201    1.0954685    -9992.782   -11736.416    1743.6343    30.113717    30.113717    30.113717 
   67100    301.88098   -551.70135    27306.222    1.0955478   -9956.5708   -11755.371    1798.7999     30.11299     30.11299     30.11299 
   67150    301.28966   -178.31609    27285.803    1.0963677   -9931.9571   -11727.234    1795.2764    30.105482    30.105482    30.105482 
   67200    300.01964   -575.01466    27252.744    1.0976976   -9908.2358   -11695.945    1787.7088    30.093318    30.093318    30.093318 
   67250    305.55307    612.27742    27200.655    1.0997997   -9883.1046   -11703.785    1820.6805    30.074133    30.074133    30.074133 
   67300    305.94053    854.13396    27168.402    1.1011053   -9883.8446   -11706.834    1822.9892    30.062242    30.062242    30.062242 
   67350    302.53588    440.46551    27168.495    1.1011016   -9902.8992   -11705.601    1802.7022    30.062276    30.062276    30.062276 
   67400    302.18151    -545.9302    27179.738    1.1006461   -9954.5977   -11755.188    1800.5906    30.066422    30.066422    30.066422 
   67450    292.63688   -5.6416447    27168.952    1.1010831    -9998.322    -11742.04    1743.7176    30.062445    30.062445    30.062445 
   67500    295.70831    564.94737    27157.834    1.1015338   -9987.6363   -11749.655    1762.0192    30.058343    30.058343    30.058343 
   67550     303.5222   -556.67851    27164.554    1.1012613   -9998.4003    -11806.98    1808.5793    30.060822    30.060822    30.060822 
   67600     296.7189   -251.80727     27159.19    1.1014788   -9991.0063   -11759.047    1768.0409    30.058844    30.058844    30.058844 
   67650     297.8855   -368.17293     27142.73    1.1021468   -9961.8927   -11736.885    1774.9922     30.05277     30.05277     30.05277 
   67700    299.29664    354.34141    27110.458    1.1034588   -9930.1048   -11713.506    1783.4007    30.040855    30.040855    30.040855 
   67750    301.75285    575.61744    27083.573    1.1045541   -9911.7493   -11709.786    1798.0364    30.030921    30.030921    30.030921 
   67800    303.89987    -20.37668    27078.396    1.1047653   -9907.6535   -11718.483    1810.8297    30.029008    30.029008    30.029008 
   67850    299.42912     83.29608    27083.671    1.1045502   -9896.3819   -11680.572    1784.1901    30.030957    30.030957    30.030957 
   67900    299.33346    256.05926    27096.104    1.1040433   -9883.7119   -11667.332    1783.6201    30.035552    30.035552    30.035552 
   67950    295.97446    318.32082    27117.012    1.1031921   -9887.3668   -11650.972     1763.605    30.043275    30.043275    30.043275 
   68000    297.03694   -265.33244    27144.441    1.1020773   -9890.8272   -11660.763     1769.936    30.053401    30.053401    30.053401 
   68050    303.89733     -1290.17    27160.221     1.101437   -9893.6356    -11704.45    1810.8146    30.059224    30.059224    30.059224 
   68100    297.45032   -224.72083    27134.123    1.1024964   -9878.9726   -11651.372    1772.3991    30.049593    30.049593    30.049593 
   68150    306.62606   -533.03965    27088.852    1.1043389   -9863.6443   -11690.718    1827.0741    30.032872    30.032872    30.032872 
   68200    301.88455    188.15896    27033.312    1.1066078   -9837.7711   -11636.592    1798.8212    30.012333    30.012333    30.012333 
   68250    310.42843     446.5809    26982.194    1.1087042   -9798.9929   -11648.724     1849.731    29.993404    29.993404    29.993404 
   68300     311.0021    490.76108    26945.276    1.1102233   -9779.8694   -11633.019    1853.1493    29.979718    29.979718    29.979718 
   68350    300.67044    644.09344    26926.197    1.1110099    -9807.062   -11598.649    1791.5867    29.972641    29.972641    29.972641 
   68400    302.05583    -100.1822     26923.37    1.1111266   -9841.7195   -11641.561    1799.8418    29.971592    29.971592    29.971592 
   68450    301.68288    313.02615    26922.942    1.1111443   -9870.3541   -11667.974    1797.6194    29.971433    29.971433    29.971433 
   68500    294.09372    364.15358    26933.462    1.1107103   -9907.8716    -11660.27    1752.3984    29.975336    29.975336    29.975336 
   68550    298.04959    204.01672    26955.276    1.1098114   -9902.2562   -11678.226      1775.97    29.983426    29.983426    29.983426 
   68600    297.10697    180.90732    26989.212     1.108416   -9888.0009   -11658.354    1770.3533    29.996004    29.996004    29.996004 
   68650    308.28285   -128.83442    27033.786    1.1065884   -9880.5705   -11717.517    1836.9463    30.012508    30.012508    30.012508 
   68700    303.35534    278.08021    27084.667    1.1045095    -9906.504   -11714.089     1807.585    30.031325    30.031325    30.031325 
   68750    300.28905    84.903815    27141.636    1.1021912   -9924.1378   -11713.452    1789.3141    30.052366    30.052366    30.052366 
   68800    294.26991   -389.72129    27201.677    1.0997584   -9984.5627   -11738.011    1753.4482     30.07451     30.07451     30.07451 
   68850    297.26466   -881.59298    27252.492    1.0977078   -10001.809   -11773.102    1771.2929    30.093225    30.093225    30.093225 
   68900     296.6873    5.0433476    27279.756    1.0966107   -9984.5485   -11752.401    1767.8526    30.103258    30.103258    30.103258 
   68950     302.9257   -784.67329    27303.461    1.0956586   -9965.1758   -11770.201     1805.025    30.111974    30.111974    30.111974 
   69000    303.16398   -399.87937    27305.403    1.0955807   -9960.2677   -11766.713    1806.4448    30.112688    30.112688    30.112688 
   69050     298.0163   -275.11989    27293.828    1.0960454   -9953.3999   -11729.172    1775.7717    30.108433    30.108433    30.108433 
   69100    303.71409   -292.56719    27267.197    1.0971158   -9949.8647   -11759.587    1809.7227    30.098637    30.098637    30.098637 
   69150    305.94627   -650.03925    27223.291    1.0988852   -9933.8294   -11756.853    1823.0235    30.082473    30.082473    30.082473 
   69200    293.81467    907.39752    27163.858    1.1012896   -9943.8536   -11694.589    1750.7356    30.060566    30.060566    30.060566 
   69250     296.1097    937.27827    27127.438    1.1027681    -9947.724   -11712.135    1764.4109    30.047125    30.047125    30.047125 
   69300    290.28876    170.21605    27117.822    1.1031591   -9951.7791   -11681.505     1729.726    30.043574    30.043574    30.043574 
   69350    296.23945   -302.82573    27117.733    1.1031628   -9941.9138   -11707.098     1765.184    30.043541    30.043541    30.043541 
   69400    305.52381    173.09264    27121.344    1.1030159   -9915.1909   -11735.697    1820.5062    30.044875    30.044875    30.044875 
   69450    298.01537    32.242753     27143.13    1.1021306   -9914.4991   -11690.265    1775.7661    30.052918    30.052918    30.052918 
   69500    298.02595   -252.57803    27171.583    1.1009764   -9907.5275   -11683.357    1775.8291    30.063415    30.063415    30.063415 
   69550    303.94969   -211.45801    27192.857    1.1001151   -9903.1393   -11714.266    1811.1266    30.071259    30.071259    30.071259 
   69600    300.64176    692.73814    27213.514    1.0992801   -9896.4899   -11687.906    1791.4158    30.078872    30.078872    30.078872 
   69650    300.43431   -48.293981    27256.088     1.097563   -9922.1043   -11712.284    1790.1797    30.094549    30.094549    30.094549 
   69700    305.68151   -700.04472    27302.467    1.0956985   -9917.9978   -11739.444    1821.4459    30.111609    30.111609    30.111609 
   69750    294.95037    271.14409    27331.259    1.0945443   -9955.4938   -11712.997    1757.5028     30.12219     30.12219     30.12219 
   69800    296.30827   -232.35838    27358.298    1.0934625     -9974.13   -11739.724    1765.5941     30.13212     30.13212     30.13212 
   69850    289.23082   -518.86232    27372.407    1.0928989    -10006.87   -11730.292    1723.4221    30.137299    30.137299    30.137299 
   69900    296.77852   -839.31437    27360.702    1.0933664   -10027.464    -11795.86    1768.3961    30.133003    30.133003    30.133003 
   69950    295.31266   -620.51087    27319.915    1.0949988   -10049.295   -11808.957    1759.6616    30.118022    30.118022    30.118022 
SHAKE stats (type/ave/delta) on step 70000
  1 0.957938 0.00185694
  1 104.403 0.0922968
   70000    292.11017   -242.31463    27257.626     1.097501   -10036.875   -11777.455    1740.5791    30.095115    30.095115    30.095115 
   70050    294.62119    341.56868    27187.624    1.1003268   -10000.012   -11755.553    1755.5414     30.06933     30.06933     30.06933 
   70100    311.01689    405.33332    27132.871    1.1025473   -9926.4758   -11779.713    1853.2374    30.049131    30.049131    30.049131 
   70150    308.16578    304.89282    27110.978    1.1034376   -9905.9921   -11742.241    1836.2487    30.041047    30.041047    30.041047 
   70200    294.23222    830.08116    27116.206    1.1032249   -9907.5012   -11660.725    1753.2237    30.042978    30.042978    30.042978 
   70250    301.23851    542.57141    27152.428    1.1017531   -9907.0955   -11702.067    1794.9716    30.056349    30.056349    30.056349 
   70300    294.28669   -173.21739    27213.032    1.0992995   -9914.2665   -11667.815    1753.5482    30.078694    30.078694    30.078694 
   70350    302.83727   -732.38506    27265.516    1.0971835   -9896.2868   -11700.785     1804.498    30.098019    30.098019    30.098019 
   70400    304.65726    70.773048    27290.934    1.0961616   -9872.4484   -11687.791    1815.3427    30.107369    30.107369    30.107369 
   70450    301.47667   -72.192385    27308.216    1.0954678   -9863.3508   -11659.742    1796.3907    30.113723    30.113723    30.113723 
   70500    300.04383    271.24719    27323.603    1.0948509   -9873.8144   -11661.667    1787.8529    30.119377    30.119377    30.119377 
   70550    299.20152    -141.4431    27346.535    1.0939329   -9909.1916   -11692.026    1782.8339    30.127801    30.127801    30.127801 
   70600    291.87071   -342.34465    27356.988    1.0935149   -9955.4172    -11694.57    1739.1523    30.131639    30.131639    30.131639 
   70650    295.55393   -253.04525    27346.697    1.0939263   -9966.2227   -11727.322    1761.0992    30.127861    30.127861    30.127861 
   70700    297.53583   -695.62557    27319.125    1.0950304     -9973.69   -11746.599    1772.9087    30.117732    30.117732    30.117732 
   70750    298.16413   -440.06194    27266.487    1.0971444   -9985.0478     -11761.7    1776.6525    30.098376    30.098376    30.098376 
   70800    297.37071   -102.56391    27195.165    1.1000218   -9975.1502   -11747.075    1771.9248     30.07211     30.07211     30.07211 
   70850    296.93752     218.5653    27117.192    1.1031847    -9939.835   -11709.179    1769.3436    30.043342    30.043342    30.043342 
   70900    308.58508    584.02908    27050.175    1.1059179   -9891.3288   -11730.076    1838.7472    30.018572    30.018572    30.018572 
   70950    311.13621    1124.2528    27017.712    1.1072467   -9844.4981   -11698.447    1853.9484    30.006558    30.006558    30.006558 
   71000    307.14602    628.18037    27033.473    1.1066012   -9852.8331   -11683.005    1830.1724    30.012392    30.012392    30.012392 
   71050      299.413    261.50047    27075.033    1.1049026   -9876.6169   -11660.711     1784.094    30.027764    30.027764    30.027764 
   71100    303.97658     26.13685    27124.807     1.102875   -9869.4991   -11680.786    1811.2868    30.046154    30.046154    30.046154 
   71150    299.66121    146.00825    27175.793    1.1008059   -9889.9121   -11675.485     1785.573    30.064968    30.064968    30.064968 
   71200    294.53254   -63.956623    27231.383    1.0985587   -9914.4141   -11669.427    1755.0132    30.085454    30.085454    30.085454 
   71250    301.99349   -639.12684    27278.348    1.0966673   -9915.8341   -11715.304    1799.4702     30.10274     30.10274     30.10274 
   71300    302.66884    -354.2286    27299.872    1.0958027   -9916.6311   -11720.126    1803.4944    30.110655    30.110655    30.110655 
   71350    299.89216   -638.90561    27304.658    1.0956106   -9935.7053   -11722.655    1786.9492    30.112415    30.112415    30.112415 
   71400    290.17383   -448.06074    27282.461     1.096502    -9955.032   -11684.073    1729.0412    30.104253    30.104253    30.104253 
   71450    299.17798    -409.0245    27236.129    1.0983673   -9946.7423   -11729.436    1782.6937    30.087202    30.087202    30.087202 
   71500    298.07359    341.80116     27177.64    1.1007311   -9940.3183   -11716.431     1776.113    30.065649    30.065649    30.065649 
   71550    302.78181   -325.75742    27120.466    1.1030516   -9924.8939   -11729.061    1804.1676    30.044551    30.044551    30.044551 
   71600    301.12211    429.66655    27051.601    1.1058596   -9909.9405   -11704.219     1794.278    30.019099    30.019099    30.019099 
   71650    309.02386    1180.6187    27001.979    1.1078919   -9890.1056   -11731.467    1841.3617    30.000733    30.000733    30.000733 
   71700     303.5299    1331.4861    27003.726    1.1078202   -9893.3605   -11701.986    1808.6252     30.00138     30.00138     30.00138 
   71750    305.92261    543.19338    27055.928    1.1056827   -9926.8277    -11749.71    1822.8825      30.0207      30.0207      30.0207 
   71800    293.73997    518.43995    27139.535    1.1022765    -9969.145   -11719.436    1750.2905    30.051591    30.051591    30.051591 
   71850    294.83012   -357.92543    27241.461    1.0981523   -9999.7307   -11756.517    1756.7863    30.089165    30.089165    30.089165 
   71900    289.95912   -214.30976    27331.736    1.0945252   -9999.0952   -11726.857    1727.7618    30.122366    30.122366    30.122366 
   71950    295.43206   -650.99641    27406.732    1.0915301   -9989.9447   -11750.318    1760.3731    30.149891    30.149891    30.149891 
   72000    296.00144   -134.42824    27451.738    1.0897406   -9963.8472   -11727.613    1763.7658    30.166386    30.166386    30.166386 
   72050    300.06075   -279.35385    27475.058    1.0888156   -9933.6489   -11721.603    1787.9538    30.174925    30.174925    30.174925 
   72100    304.57738   -622.41949    27476.093    1.0887746    -9921.834   -11736.701    1814.8667    30.175304    30.175304    30.175304 
   72150    301.93219    12.001767    27456.318    1.0895588   -9921.7867   -11720.892     1799.105    30.168063    30.168063    30.168063 
   72200    295.18265    192.12694    27437.555    1.0903039   -9922.8506   -11681.738     1758.887     30.16119     30.16119     30.16119 
   72250    298.21702    368.95904    27422.089    1.0909188   -9915.5044   -11692.472    1776.9677    30.155522    30.155522    30.155522 
   72300    301.53051   -161.59924    27412.623    1.0912955   -9930.8491   -11727.561    1796.7116    30.152051    30.152051    30.152051 
   72350    300.32784   -370.97504    27394.301    1.0920254   -9930.4901   -11720.035    1789.5453    30.145332    30.145332    30.145332 
   72400    298.04537   -157.59056    27359.236     1.093425   -9952.8773   -11728.822    1775.9449    30.132465    30.132465    30.132465 
   72450    298.00949   -381.85565    27310.427    1.0953792   -9982.0678   -11757.799    1775.7311    30.114535    30.114535    30.114535 
   72500    287.98822    143.18488    27252.194    1.0977198   -10010.387   -11726.404    1716.0179    30.093116    30.093116    30.093116 
   72550    295.76552    46.582651    27201.792    1.0997538   -10009.279   -11771.639    1762.3601    30.074552    30.074552    30.074552 
   72600    297.13079    505.96568    27161.242    1.1013956    -9985.723   -11756.218    1770.4952    30.059601    30.059601    30.059601 
   72650    310.70547    11.139157    27143.362    1.1021211   -9943.6887   -11795.071    1851.3818    30.053003    30.053003    30.053003 
   72700    301.61327    750.46071    27141.084    1.1022137    -9941.308   -11738.513    1797.2047    30.052162    30.052162    30.052162 
   72750    297.94229    471.59506    27157.378    1.1015523   -9949.0755   -11724.406    1775.3307    30.058175    30.058175    30.058175 
   72800    305.02705    150.69226    27182.117    1.1005498   -9940.8475   -11758.394    1817.5461      30.0673      30.0673      30.0673 
   72850    304.24818     661.2224    27217.404    1.0991229   -9967.3187   -11780.224    1812.9052    30.080305    30.080305    30.080305 
   72900    298.08356   -68.437304    27273.242    1.0968727   -10022.696   -11798.868    1776.1724    30.100861    30.100861    30.100861 
   72950    293.42751   -188.86839     27328.48    1.0946556   -10079.971   -11828.399    1748.4287    30.121169    30.121169    30.121169 
   73000    285.65542   -857.95392     27372.01    1.0929147   -10071.295   -11773.412    1702.1176    30.137154    30.137154    30.137154 
   73050    284.15136   -1230.1443    27375.533    1.0927741   -10041.314   -11734.469    1693.1554    30.138447    30.138447    30.138447 
   73100    291.00971   -852.40795    27323.863    1.0948405   -9996.2704   -11730.292    1734.0219    30.119473    30.119473    30.119473 
   73150    297.19375   -130.31517    27233.634    1.0984679   -9951.3668   -11722.237    1770.8704    30.086283    30.086283    30.086283 
   73200    300.03569    394.30061    27141.359    1.1022025   -9935.4354    -11723.24    1787.8045    30.052264    30.052264    30.052264 
   73250    296.94208    1100.4474    27082.321    1.1046052   -9894.8189    -11664.19    1769.3707    30.030458    30.030458    30.030458 
   73300    308.30247    806.87744    27069.127    1.1051436   -9885.8152   -11722.878    1837.0632    30.025581    30.025581    30.025581 
   73350    307.56535    618.98121    27092.798    1.1041781   -9899.5285     -11732.2     1832.671     30.03433     30.03433     30.03433 
   73400    305.71413    830.02886    27147.384    1.1019579   -9919.1006   -11740.741    1821.6403    30.054487    30.054487    30.054487 
   73450    292.09438     420.5936    27229.332    1.0986415   -9985.9148     -11726.4    1740.4851    30.084698    30.084698    30.084698 
   73500    296.67122   -8.6546219    27320.324    1.0949824   -9975.4416   -11743.198    1767.7568    30.118172    30.118172    30.118172 
   73550    296.92036   -791.63871    27396.317     1.091945   -9981.2474   -11750.489    1769.2413    30.146072    30.146072    30.146072 
   73600     292.9632   -657.21973     27435.67    1.0903788   -9989.7977    -11735.46    1745.6621    30.160499    30.160499    30.160499 
   73650    299.90477   -1062.3004    27438.468    1.0902676   -9967.8329   -11754.857    1787.0244    30.161524    30.161524    30.161524 
   73700    300.82068   -520.11281    27401.564     1.091736   -9948.7727   -11741.255    1792.4819    30.147996    30.147996    30.147996 
   73750    306.27661    7.7189248    27347.499    1.0938943   -9904.7299   -11729.722    1824.9918    30.128155    30.128155    30.128155 
   73800    308.46475   -60.402413    27297.023     1.095917   -9909.3729   -11747.403    1838.0302    30.109608    30.109608    30.109608 
   73850    293.48841     220.4377    27251.351    1.0977537   -9929.2379   -11678.029    1748.7916    30.092806    30.092806    30.092806 
   73900    301.33381   -467.20184     27207.95    1.0995048   -9982.5652   -11778.105    1795.5395    30.076822    30.076822    30.076822 
   73950    284.74583     621.2259    27160.721    1.1014168   -10037.775   -11734.473    1696.6977    30.059408    30.059408    30.059408 
   74000    297.86305    212.36712    27130.345    1.1026499   -10027.933   -11802.791    1774.8585    30.048198    30.048198    30.048198 
   74050    304.80148    101.38178    27114.041    1.1033129   -10023.488    -11839.69    1816.2021    30.042178    30.042178    30.042178 
   74100    294.34914    1272.0189    27122.357    1.1029747   -10005.675   -11759.596    1753.9204    30.045249    30.045249    30.045249 
   74150    308.97825    521.03304     27182.82    1.1005213   -9986.3151   -11827.405    1841.0899    30.067559    30.067559    30.067559 
   74200    301.22348    551.99219    27273.784    1.0968508   -9958.9486   -11753.831    1794.8821    30.101061    30.101061    30.101061 
   74250    302.63702    111.28052    27378.238    1.0926661   -9955.7199   -11759.025    1803.3048    30.139439    30.139439    30.139439 
   74300    304.89218   -602.64999    27480.097     1.088616   -9958.0894   -11774.832    1816.7425     30.17677     30.17677     30.17677 
   74350    301.04241   -670.37105    27554.691    1.0856689   -9965.4444   -11759.248    1793.8031     30.20405     30.20405     30.20405 
   74400    297.51716   -738.25049    27593.927    1.0841253   -9995.5927    -11768.39    1772.7974    30.218379    30.218379    30.218379 
   74450    289.34001   -794.97683    27596.634    1.0840189   -10032.259   -11756.332    1724.0728    30.219368    30.219368    30.219368 
   74500    299.46569   -1024.3709    27561.461    1.0854023   -10048.095   -11832.503    1784.4081    30.206523    30.206523    30.206523 
   74550    292.81876   -868.25921    27491.169    1.0881776   -10058.252   -11803.054    1744.8014    30.180822    30.180822    30.180822 
   74600    294.52309    603.82094     27398.34    1.0918644   -10029.573    -11784.53    1754.9569    30.146814    30.146814    30.146814 
   74650    304.85239    739.52969      27332.3    1.0945026   -9985.4094   -11801.915    1816.5054    30.122573    30.122573    30.122573 
   74700    305.89842     951.0754    27304.947     1.095599   -9961.2937   -11784.032    1822.7384    30.112521    30.112521    30.112521 
   74750    300.25913    825.41229    27313.238    1.0952664   -9957.2331   -11746.369    1789.1359    30.115568    30.115568    30.115568 
   74800    301.64483    288.43127    27348.974    1.0938353   -9959.7834   -11757.176    1797.3927    30.128697    30.128697    30.128697 
   74850     297.6853    169.90892    27394.176    1.0920304   -9961.5276   -11735.327    1773.7993    30.145286    30.145286    30.145286 
   74900    298.07984   -145.57761     27436.25    1.0903558   -9973.0279   -11749.178    1776.1502    30.160712    30.160712    30.160712 
   74950    305.23325    -366.1198    27466.669    1.0891482   -9982.7158   -11801.491    1818.7748    30.171854    30.171854    30.171854 
   75000    298.86895   -380.12416     27485.09    1.0884182   -10010.935   -11791.787    1780.8523    30.178598    30.178598    30.178598 
   75050    293.01059    106.97824    27498.506    1.0878872   -10051.895   -11797.839    1745.9444    30.183507    30.183507    30.183507 
   75100    292.30216    125.89204    27520.094    1.0870338   -10069.058   -11810.781    1741.7231    30.191403    30.191403    30.191403 
   75150    288.91404   -170.44654    27544.815    1.0860582   -10068.097   -11789.631    1721.5346    30.200441    30.200441    30.200441 
   75200    299.19435   -506.40028    27554.351    1.0856824   -10038.043   -11820.835    1782.7912    30.203926    30.203926    30.203926 
   75250     304.9605    530.92025     27543.42    1.0861132   -9989.0058   -11806.155    1817.1496    30.199931    30.199931    30.199931 
   75300    306.94826    517.51803      27548.5    1.0859129   -9950.3211   -11779.315    1828.9939    30.201788    30.201788    30.201788 
   75350    305.13684    474.35572    27580.008    1.0846724   -9957.3359   -11775.536    1818.2004    30.213298    30.213298    30.213298 
   75400    292.23731   -93.029681    27633.565    1.0825702    -9966.036   -11707.373    1741.3367    30.232842    30.232842    30.232842 
   75450    301.71143   -951.77263    27675.713    1.0809215   -9965.7102     -11763.5    1797.7896    30.248205    30.248205    30.248205 
   75500    300.38844   -957.89591    27678.404    1.0808164   -9958.1384   -11748.045    1789.9064    30.249185    30.249185    30.249185 
   75550    300.71962   -320.58205    27641.803    1.0822475   -9953.0192   -11744.899    1791.8797    30.235846    30.235846    30.235846 
   75600    301.77403   -52.131702    27587.722    1.0843691   -9941.3116   -11739.474    1798.1626    30.216114    30.216114    30.216114 
   75650    306.29712     535.1984    27538.017    1.0863263   -9902.5515   -11727.666    1825.1141    30.197957    30.197957    30.197957 
   75700    315.42367    547.91344     27511.38    1.0873781   -9878.3744    -11757.87    1879.4959    30.188217    30.188217    30.188217 
   75750     301.4539    627.26754    27513.727    1.0872854   -9898.6412   -11694.896     1796.255    30.189075    30.189075    30.189075 
   75800    302.63249   0.70583689    27536.047     1.086404   -9933.4535   -11736.731    1803.2778    30.197236    30.197236    30.197236 
   75850    301.22463   -47.066257    27560.943    1.0854227   -9976.6832   -11771.572    1794.8889    30.206334    30.206334    30.206334 
   75900    293.82184   -72.755631    27589.024    1.0843179   -9986.7464   -11737.525    1750.7784     30.21659     30.21659     30.21659 
   75950    299.29358   -862.19871    27607.544    1.0835905   -9986.9563   -11770.339    1783.3825    30.223349    30.223349    30.223349 
   76000    296.42733   -114.10104    27592.104    1.0841969   -9972.1134   -11738.417    1766.3035    30.217714    30.217714    30.217714 
   76050    299.42804   -101.86505    27572.208    1.0849792   -9939.5327   -11723.716    1784.1837    30.210449    30.210449    30.210449 
   76100    306.17431   -153.79943    27552.091    1.0857714   -9910.2228   -11734.605    1824.3823      30.2031      30.2031      30.2031 
   76150    300.64109    816.40898    27535.312    1.0864331   -9904.0582    -11695.47    1791.4118    30.196968    30.196968    30.196968 
   76200    300.02817    309.57131    27552.353    1.0857611   -9911.5237   -11699.283    1787.7597    30.203196    30.203196    30.203196 
   76250    304.61876   -35.306014    27586.636    1.0844118   -9911.8102   -11726.923    1815.1133    30.215718    30.215718    30.215718 
   76300    301.47861    -479.9636    27626.767    1.0828365   -9922.2736   -11718.676    1796.4023    30.230363    30.230363    30.230363 
   76350    297.33772    261.12469    27657.027    1.0816518   -9933.1506   -11704.879    1771.7282    30.241396    30.241396    30.241396 
   76400    296.62688   -340.97745    27681.548    1.0806936   -9969.9995   -11737.492    1767.4926    30.250331    30.250331    30.250331 
   76450    297.42578   -456.65042    27689.663    1.0803769   -10001.124   -11773.377    1772.2529    30.253286    30.253286    30.253286 
   76500    298.91507   -502.25627    27675.948    1.0809123   -10018.917   -11800.044    1781.1271     30.24829     30.24829     30.24829 
   76550    296.12773    138.84013    27643.991    1.0821619   -10038.833   -11803.352    1764.5183    30.236644    30.236644    30.236644 
   76600    297.66608     347.1468    27615.442    1.0832806    -10050.09   -11823.775    1773.6848    30.226231    30.226231    30.226231 
   76650    293.95333    219.33032    27600.698    1.0838593   -10067.545   -11819.107    1751.5619    30.220851    30.220851    30.220851 
   76700    293.32101   -291.42583     27593.62    1.0841373   -10072.495   -11820.289    1747.7941    30.218267    30.218267    30.218267 
   76750    300.68071   -211.73225    27579.071    1.0847092   -10041.761   -11833.409    1791.6479    30.212956    30.212956    30.212956 
   76800    298.65919     302.7191    27561.851    1.0853869   -9992.3231   -11771.925    1779.6024    30.206666    30.206666    30.206666 
   76850    293.79002    441.23568    27548.976    1.0858942   -9967.1748   -11717.764    1750.5888    30.201962    30.201962    30.201962 
   76900    299.02782    75.425556    27542.913    1.0861332   -9954.0046   -11735.804    1781.7989    30.199746    30.199746    30.199746 
   76950    301.60388   -450.75555    27535.486    1.0864262   -9947.4939   -11744.643    1797.1487    30.197031    30.197031    30.197031 
   77000    297.51235   -304.34338    27510.739    1.0874035   -9941.9489   -11714.718    1772.7688    30.187982    30.187982    30.187982 
   77050    301.85407   -151.56646    27468.677    1.0890686   -9957.6948   -11756.334    1798.6395    30.172589    30.172589    30.172589 
   77100    300.38057   -506.17929    27424.101    1.0908388   -9957.6274   -11747.487    1789.8595    30.156259    30.156259    30.156259 
   77150    303.95106    432.78688    27364.796    1.0932028   -9950.3453    -11761.48    1811.1347    30.134506    30.134506    30.134506 
   77200    297.91875    420.45136    27316.511    1.0951352   -9996.3585   -11771.549    1775.1904    30.116771    30.116771    30.116771 
   77250    294.37029    79.220948    27282.098    1.0965166   -10052.756   -11806.802    1754.0464    30.104119    30.104119    30.104119 
   77300    292.50464   -106.77758    27248.289    1.0978771   -10082.604   -11825.533    1742.9296    30.091678    30.091678    30.091678 
   77350    297.56858    233.75643    27206.565    1.0995608   -10076.572   -11849.676    1773.1038    30.076311    30.076311    30.076311 
   77400    299.34115    743.29141    27168.007    1.1011214   -10082.593   -11866.259    1783.6659    30.062096    30.062096    30.062096 
   77450    297.64868    349.11708    27157.777    1.1015361   -10082.251   -11855.832    1773.5811    30.058322    30.058322    30.058322 
   77500    298.34523    929.52587    27173.709    1.1008903    -10066.48   -11844.211    1777.7316    30.064199    30.064199    30.064199 
   77550    304.10317     170.2601     27227.42    1.0987186   -10029.161   -11841.202    1812.0411    30.083994    30.083994    30.083994 
   77600    295.87311    224.33054    27303.907    1.0956407   -10003.432   -11766.433    1763.0012    30.112139    30.112139    30.112139 
   77650    302.08645   -730.99931    27383.727    1.0924471   -9972.7968   -11772.821    1800.0242    30.141453    30.141453    30.141453 
   77700    305.50322   -335.52618    27445.127    1.0900031   -9966.5151   -11786.899    1820.3835    30.163964    30.163964    30.163964 
   77750    307.86759   -620.63397    27499.773    1.0878371   -9960.7486    -11795.22    1834.4719    30.183971    30.183971    30.183971 
   77800    302.13998   -663.84148     27537.54    1.0863451   -9955.5931   -11755.936    1800.3432    30.197782    30.197782    30.197782 
   77850    304.59559   -363.12773    27550.023    1.0858529   -9957.7599   -11772.735    1814.9753    30.202344    30.202344    30.202344 
   77900    296.67689   -765.21911    27542.233      1.08616   -9971.7657   -11739.556    1767.7906    30.199497    30.199497    30.199497 
   77950    292.26222    -790.4044    27493.749    1.0880754   -9967.6195   -11709.105    1741.4852    30.181766    30.181766    30.181766 
   78000    303.16922    -596.0281    27397.838    1.0918845   -9954.6683   -11761.144     1806.476    30.146629    30.146629    30.146629 
   78050    304.73511    149.75403    27276.186    1.0967543   -9944.8952   -11760.702    1815.8066    30.101944    30.101944    30.101944 
   78100    308.02446    1116.0469    27165.794    1.1012111   -9945.3489   -11780.756    1835.4067     30.06128     30.06128     30.06128 
   78150    298.76204    1841.2325    27105.125    1.1036759    -9956.535    -11736.75    1780.2152    30.038885    30.038885    30.038885 
   78200    298.24425    1511.8115     27117.89    1.1031564   -10016.836   -11793.966    1777.1299    30.043599    30.043599    30.043599 
   78250    293.12088    534.24257    27195.838    1.0999945   -10072.897   -11819.499    1746.6016    30.072358    30.072358    30.072358 
   78300    297.86372   -14.658148     27303.38    1.0956619    -10085.99   -11860.852    1774.8624    30.111945    30.111945    30.111945 
   78350    290.20123   -133.09353     27412.93    1.0912833   -10091.078   -11820.282    1729.2045    30.152164    30.152164    30.152164 
   78400    285.49476   -726.98144    27512.988    1.0873146   -10092.422   -11793.583    1701.1603    30.188805    30.188805    30.188805 
   78450    296.81447   -1213.5189    27578.577    1.0847286   -10055.085   -11823.695    1768.6104    30.212775    30.212775    30.212775 
   78500    291.57244    134.43774    27596.492    1.0840245   -10002.761   -11740.136     1737.375    30.219316    30.219316    30.219316 
   78550    308.22587     -488.956    27600.496    1.0838672   -9994.4057   -11831.013    1836.6068    30.220777    30.220777    30.220777 
   78600    307.66118   -24.957502    27594.169    1.0841157   -9992.5896   -11825.832     1833.242    30.218468    30.218468    30.218468 
   78650    300.11648   -73.652221    27590.056    1.0842774   -10007.003   -11795.288    1788.2859    30.216966    30.216966    30.216966 
   78700    285.33905   -237.85601    27576.074    1.0848271   -10022.541   -11722.773    1700.2325    30.211861    30.211861    30.211861 
   78750     296.2193   -186.51493    27535.704    1.0864176    -10017.27   -11782.334     1765.064    30.197111    30.197111    30.197111 
   78800    308.78597   -569.88877    27477.731    1.0887097   -9988.2573   -11828.202    1839.9442    30.175904    30.175904    30.175904 
   78850    307.05541     242.6703     27402.41    1.0917023   -9990.2538   -11819.886    1829.6324    30.148306    30.148306    30.148306 
   78900    302.37942    816.00777    27336.993    1.0943147   -9968.6085   -11770.378    1801.7699    30.124296    30.124296    30.124296 
   78950    302.78453    942.11218    27306.269     1.095546   -9956.5333   -11760.717    1804.1838    30.113007    30.113007    30.113007 
   79000    302.95601    1260.4935    27311.531    1.0953349   -9975.0382   -11780.244    1805.2056    30.114941    30.114941    30.114941 
   79050    302.69886   -136.92622    27363.635    1.0932492   -10000.857   -11804.531    1803.6733    30.134079    30.134079    30.134079 
   79100    287.80388   -570.64372    27419.852    1.0910078   -10019.665   -11734.585    1714.9195    30.154702    30.154702    30.154702 
   79150    288.82119   -106.78868    27453.486    1.0896712   -10031.139    -11752.12    1720.9813    30.167026    30.167026    30.167026 
   79200    304.17153   -300.93628    27475.772    1.0887873   -10006.174   -11818.622    1812.4484    30.175187    30.175187    30.175187 
   79250     300.4825   -94.090263    27487.004    1.0883424   -10009.406   -11799.873    1790.4668    30.179298    30.179298    30.179298 
   79300    300.26755   -782.42554    27486.108    1.0883779   -10020.997   -11810.183     1789.186     30.17897     30.17897     30.17897 
   79350    305.13567   -720.36217    27454.992    1.0896114   -10008.969   -11827.162    1818.1934    30.167578    30.167578    30.167578 
   79400    300.41245   -164.51695    27404.261    1.0916285   -9995.5069   -11785.556    1790.0495    30.148985    30.148985    30.148985 
   79450    295.59747    32.252837    27345.581     1.093971   -9990.1962   -11751.555    1761.3587    30.127451    30.127451    30.127451 
   79500    303.31927    991.67412    27290.659    1.0961726    -9963.081   -11770.451    1807.3701    30.107267    30.107267    30.107267 
   79550      299.385    785.87177    27279.073    1.0966382   -9946.7252   -11730.652    1783.9272    30.103006    30.103006    30.103006 
   79600    304.68271     20.65469    27294.463    1.0960198   -9941.3038   -11756.798    1815.4944    30.108666    30.108666    30.108666 
   79650     308.7481   -186.76419    27311.479     1.095337    -9956.836   -11796.555    1839.7186    30.114922    30.114922    30.114922 
   79700    307.92056    -385.4898    27326.084    1.0947515    -9962.322    -11797.11    1834.7875    30.120289    30.120289    30.120289 
   79750    296.99434    89.670461    27332.872    1.0944797   -10002.248    -11771.93    1769.6822    30.122783    30.122783    30.122783 
   79800    296.81889   -426.99335    27338.524    1.0942534   -10038.694    -11807.33    1768.6367    30.124859    30.124859    30.124859 
   79850    292.33229   -187.39117      27322.9    1.0948791   -10063.626   -11805.529    1741.9027    30.119119    30.119119    30.119119 
   79900    297.59005    -342.6146    27288.611    1.0962549   -10058.999   -11832.231    1773.2318    30.106514    30.106514    30.106514 
   79950    299.01441   -296.77406    27238.746    1.0982617   -10037.969   -11819.688     1781.719    30.088165    30.088165    30.088165 
SHAKE stats (type/ave/delta) on step 80000
  1 0.957938 0.0021771
  1 104.403 0.0962192
   80000    299.77892   -157.61534    27168.877    1.1010861   -10021.135   -11807.409    1786.2744    30.062417    30.062417    30.062417 
   80050    297.15854    727.29568    27089.749    1.1043023   -10002.682   -11773.342    1770.6605    30.033204    30.033204    30.033204 
   80100    307.43008    792.25517    27036.358    1.1064831   -9978.3688   -11810.234     1831.865     30.01346     30.01346     30.01346 
   80150    302.22036    868.53869     27020.13    1.1071476   -9921.4161   -11722.238    1800.8221    30.007454    30.007454    30.007454 
   80200    303.11495    180.57533    27036.265    1.1064869   -9886.6184   -11692.771    1806.1527    30.013425    30.013425    30.013425 
   80250    309.51623   -210.10058    27059.194    1.1055493   -9892.8274   -11737.123    1844.2956    30.021908    30.021908    30.021908 
   80300    296.29198    493.77391    27086.212    1.1044465   -9917.3126    -11682.81     1765.497    30.031896    30.031896    30.031896 
   80350    294.86043   -287.46086    27122.423     1.102972    -9929.901   -11686.868    1756.9669    30.045273    30.045273    30.045273 
   80400    296.92611    -465.5284    27140.033    1.1022563   -9947.0348    -11716.31    1769.2756    30.051775    30.051775    30.051775 
   80450    302.91692   -746.99427    27136.284    1.1024086   -9950.7926   -11755.765    1804.9727    30.050391    30.050391    30.050391 
   80500    300.84499   -612.97916    27103.916    1.1037251   -9961.4445   -11754.071    1792.6268    30.038438    30.038438    30.038438 
   80550    295.88354    404.92932    27047.851    1.1060129   -9957.3018   -11720.365    1763.0633    30.017712    30.017712    30.017712 
   80600    301.99921    242.62865    26995.448    1.1081599   -9951.2213   -11750.726    1799.5043    29.998314    29.998314    29.998314 
   80650    306.52276    299.59041    26949.525    1.1100483   -9964.5428   -11791.001    1826.4585    29.981294    29.981294    29.981294 
   80700    297.12926    911.45466    26925.334    1.1110456   -9977.2474   -11747.733    1770.4861     29.97232     29.97232     29.97232 
   80750    294.37671    507.71331    26934.454    1.1106694   -10008.803   -11762.888    1754.0846    29.975704    29.975704    29.975704 
   80800     298.8726    591.22275    26963.557    1.1094705   -10017.245   -11798.119     1780.874    29.986497    29.986497    29.986497 
   80850    296.60113    556.92705    27020.132    1.1071476   -10039.053   -11806.393    1767.3391    30.007454    30.007454    30.007454 
   80900    289.45599   -393.93793     27099.08    1.1039221   -10047.122   -11771.886    1724.7639    30.036651    30.036651    30.036651 
   80950    295.38684   -594.80435    27169.322    1.1010681   -10028.094   -11788.198    1760.1036    30.062581    30.062581    30.062581 
   81000    296.25306   -238.13014    27222.727     1.098908   -9990.4259   -11755.691    1765.2652    30.082266    30.082266    30.082266 
   81050     300.7894   -284.80811    27264.638    1.0972188   -9957.3754   -11749.671    1792.2956    30.097696    30.097696    30.097696 
   81100    304.68292   -613.87544    27298.771    1.0958469     -9931.38   -11746.876    1815.4956     30.11025     30.11025     30.11025 
   81150    297.63387   -365.39985      27314.9    1.0951998   -9932.1105   -11705.603    1773.4929    30.116179    30.116179    30.116179 
   81200    307.07881   -26.312205    27308.961     1.095438   -9934.3135   -11764.085    1829.7719    30.113996    30.113996    30.113996 
   81250    303.11142   -59.664384    27305.361    1.0955824   -9955.6989   -11761.831    1806.1316    30.112673    30.112673    30.112673 
   81300    302.58446   -417.70047    27301.901    1.0957212   -9950.3742   -11753.366    1802.9917    30.111401    30.111401    30.111401 
   81350    296.92182   -41.874477    27282.558    1.0964981   -9981.4611   -11750.711      1769.25    30.104288    30.104288    30.104288 
   81400    292.07824   -117.76684    27256.475    1.0975474   -10025.286   -11765.675    1740.3889    30.094691    30.094691    30.094691 
   81450     296.8625   -533.25403    27224.669    1.0988296   -10042.741   -11811.638    1768.8966    30.082981    30.082981    30.082981 
   81500    292.60542   -732.54254    27173.856    1.1008844    -10039.03    -11782.56    1743.5302    30.064253    30.064253    30.064253 
   81550    291.21094    82.827608    27087.098    1.1044104   -10012.129    -11747.35    1735.2209    30.032224    30.032224    30.032224 
   81600    299.26703    159.66757    26988.219    1.1084567    -10011.36   -11794.584    1783.2243    29.995636    29.995636    29.995636 
   81650    303.26552    1033.1901    26900.475    1.1120723   -9972.6719   -11779.722    1807.0499    29.963093    29.963093    29.963093 
   81700    301.15448    1099.2471    26850.289    1.1141509    -9968.028   -11762.499    1794.4709    29.944449    29.944449    29.944449 
   81750    300.71535    699.53871    26843.287    1.1144415   -9976.8617   -11768.716    1791.8543    29.941845    29.941845    29.941845 
   81800    300.06813    233.36647    26868.474    1.1133968   -9989.9525    -11777.95    1787.9977    29.951207    29.951207    29.951207 
   81850    307.96723    224.32036    26906.658    1.1118167   -9970.4372   -11805.503    1835.0656    29.965389    29.965389    29.965389 
   81900    295.28284     540.2439    26958.014    1.1096987   -9981.2128   -11740.697    1759.4839    29.984442    29.984442    29.984442 
   81950    298.40031    488.28684    27028.807    1.1067922   -10001.196   -11779.256    1778.0598    30.010665    30.010665    30.010665 
   82000    293.20612    415.15171    27119.857    1.1030764   -10028.315   -11775.424    1747.1095    30.044326    30.044326    30.044326 
   82050    288.61728   -659.84209    27221.476    1.0989585   -10066.298   -11786.065    1719.7663    30.081805    30.081805    30.081805 
   82100    288.27266   -910.04242    27298.397    1.0958619   -10081.085   -11798.798    1717.7128    30.110113    30.110113    30.110113 
   82150     295.2716   -1062.3634     27337.32    1.0943016   -10047.891   -11807.307    1759.4169    30.124416    30.124416    30.124416 
   82200    302.55631   -770.63468    27336.328    1.0943413   -9991.6204   -11794.444    1802.8239    30.124052    30.124052    30.124052 
   82250     310.4391   -407.55659    27308.295    1.0954647   -9956.5416   -11806.336    1849.7946    30.113751    30.113751    30.113751 
   82300     301.3979   -151.37091    27275.829    1.0967686   -9941.8059   -11737.727    1795.9214    30.101813    30.101813    30.101813 
   82350    303.30584   -720.47599    27231.934    1.0985365   -9935.9395    -11743.23    1807.2901    30.085657    30.085657    30.085657 
   82400    299.31408    202.40039    27165.899    1.1012068   -9924.3725   -11707.877    1783.5047    30.061319    30.061319    30.061319 
   82450    296.98625    429.14809    27104.039    1.1037201    -9926.248   -11695.882    1769.6339    30.038484    30.038484    30.038484 
   82500    300.51947    12.189508    27055.873     1.105685   -9939.1547   -11729.842    1790.6871    30.020679    30.020679    30.020679 
   82550     296.6044    937.54018    27020.729    1.1071231   -9946.9206   -11714.279    1767.3587    30.007676    30.007676    30.007676 
   82600     289.4759    652.10186    27017.288    1.1072641   -9966.6143   -11691.497    1724.8825    30.006402    30.006402    30.006402 
   82650    298.98371    317.56839    27036.659    1.1064708    -9955.358   -11736.894    1781.5361    30.013571    30.013571    30.013571 
   82700    300.81537    768.11132    27072.359    1.1050117   -9949.6182   -11742.069    1792.4503    30.026776    30.026776    30.026776 
   82750    306.07044   -399.65325    27138.422    1.1023217    -9923.519   -11747.282    1823.7634     30.05118     30.05118     30.05118 
   82800    307.17572   -223.12558    27201.435    1.0997682   -9907.2044   -11737.554    1830.3493    30.074421    30.074421    30.074421 
   82850    305.17498    341.20943    27261.687    1.0973375   -9897.2489   -11715.677    1818.4277     30.09661     30.09661     30.09661 
   82900    305.74883   -482.77034    27329.675    1.0946077   -9911.1439   -11732.991     1821.847    30.121608    30.121608    30.121608 
   82950     296.3668   -377.83996    27380.186    1.0925884   -9936.7714   -11702.714    1765.9428    30.140154    30.140154    30.140154 
   83000     293.7451   -1060.6133    27401.206    1.0917502   -9957.8284   -11708.149    1750.3211    30.147865    30.147865    30.147865 
   83050    296.61339   -1117.2785     27376.61    1.0927311   -9973.3315   -11740.744    1767.4122    30.138841    30.138841    30.138841 
   83100    298.22623   -614.60053    27310.444    1.0953785   -9967.6233   -11744.646    1777.0225    30.114541    30.114541    30.114541 
   83150    300.15895   -663.17462    27216.618    1.0991547   -9954.1702   -11742.709    1788.5389    30.080015    30.080015    30.080015 
   83200     299.1652    302.06439     27099.57    1.1039021   -9921.4679   -11704.085    1782.6175    30.036832    30.036832    30.036832 
   83250    307.08859    1414.4147    26997.294    1.1080841   -9871.7717   -11701.602    1829.8301    29.998998    29.998998    29.998998 
   83300    317.78602    945.52161    26949.886    1.1100334   -9843.2137   -11736.786    1893.5723    29.981428    29.981428    29.981428 
   83350    310.94973    1157.7633    26953.882    1.1098688   -9864.4805   -11717.318    1852.8373    29.982909    29.982909    29.982909 
   83400    308.53206    497.83596     27004.28    1.1077975   -9906.1933   -11744.625    1838.4312    30.001585    30.001585    30.001585 
   83450    299.92214    664.55071    27085.015    1.1044953   -9918.7806   -11705.908    1787.1278    30.031454    30.031454    30.031454 
   83500    306.82747    388.66032    27185.523    1.1004119   -9947.7856    -11776.06    1828.2742    30.068556    30.068556    30.068556 
   83550    293.76129    187.40507     27294.64    1.0960127    -9986.356   -11736.774    1750.4176    30.108731    30.108731    30.108731 
   83600     288.9379    -77.47711    27402.041     1.091717   -10006.582   -11728.258    1721.6767    30.148171    30.148171    30.148171 
   83650    291.78414   -523.55109    27495.307    1.0880138   -10010.609   -11749.246    1738.6364    30.182337    30.182337    30.182337 
   83700    297.88464   -1256.0019    27549.269    1.0858826   -9991.7253   -11766.712    1774.9871    30.202069    30.202069    30.202069 
   83750     305.0926   -436.14688    27553.272    1.0857249   -9931.8513   -11749.788    1817.9368    30.203532    30.203532    30.203532 
   83800    297.29735   -82.117671    27536.393    1.0863904   -9915.4501   -11686.938    1771.4877    30.197363    30.197363    30.197363 
   83850    297.94237    -15.02737    27513.321    1.0873014   -9916.4716   -11691.803    1775.3311    30.188927    30.188927    30.188927 
   83900    301.29371   -701.88155    27488.121    1.0882982   -9914.4728   -11709.773    1795.3005    30.179707    30.179707    30.179707 
   83950    306.66682   -989.12779    27439.933    1.0902094   -9899.7148   -11727.032     1827.317    30.162061    30.162061    30.162061 
   84000    298.85837   -141.81726    27365.708    1.0931664   -9918.9252   -11699.714    1780.7892     30.13484     30.13484     30.13484 
   84050     297.2512   -119.24384    27284.364    1.0964255    -9912.047    -11683.26    1771.2127    30.104952    30.104952    30.104952 
   84100    302.91421    673.85334    27206.743    1.0995536   -9927.4259   -11732.382    1804.9565    30.076377    30.076377    30.076377 
   84150    299.27201    1225.6946    27163.155    1.1013181   -9915.6244   -11698.878     1783.254    30.060306    30.060306    30.060306 
   84200    300.40315    941.20986    27165.357    1.1012288   -9909.3017   -11699.296     1789.994    30.061119    30.061119    30.061119 
   84250    299.40279    596.90617    27199.297    1.0998546   -9940.8546   -11724.888    1784.0332    30.073633    30.073633    30.073633 
   84300    302.04854   -433.46978    27244.722    1.0980209   -9933.6677   -11733.466    1799.7983    30.090365    30.090365    30.090365 
   84350    301.97585   -385.72065    27273.477    1.0968632    -9945.218   -11744.583    1799.3652    30.100948    30.100948    30.100948 
   84400    296.39359    -401.4623     27283.01    1.0964799   -9964.6608   -11730.763    1766.1025    30.104455    30.104455    30.104455 
   84450    304.03645   -722.54515    27270.994     1.096963   -9970.1272   -11781.771    1811.6435    30.100034    30.100034    30.100034 
   84500    299.40546   -259.99666     27232.17     1.098527   -9964.3095   -11748.359    1784.0491    30.085744    30.085744    30.085744 
   84550    298.91692    317.85841    27184.092    1.1004698   -9961.1069   -11742.245    1781.1381    30.068028    30.068028    30.068028 
   84600    301.76168    774.95206    27150.909    1.1018148   -9945.7049   -11743.794     1798.089    30.055788    30.055788    30.055788 
   84650    303.92841   -47.598402    27144.954    1.1020565   -9915.7966   -11726.796    1810.9997    30.053591    30.053591    30.053591 
   84700    296.66757    461.46929    27142.666    1.1021494   -9899.9789   -11667.714     1767.735    30.052746    30.052746    30.052746 
   84750    308.96622     165.3353    27147.025    1.1019724   -9914.9455   -11755.964    1841.0182    30.054355    30.054355    30.054355 
   84800    299.83613     83.01263     27157.86    1.1015328   -9930.7821   -11717.397    1786.6153    30.058353    30.058353    30.058353 
   84850    293.88545   -230.16871    27166.434    1.1011851   -9964.2308   -11715.388    1751.1574    30.061516    30.061516    30.061516 
   84900    292.76763   -195.35257    27164.671    1.1012566   -9987.8735    -11732.37    1744.4967    30.060866    30.060866    30.060866 
   84950    293.45037   -160.61403     27149.93    1.1018545   -9978.3715   -11726.936    1748.5649    30.055427    30.055427    30.055427 
   85000    300.16293   -438.46699    27126.373    1.1028114   -9952.4822   -11741.045    1788.5626    30.046732    30.046732    30.046732 
   85050    302.16145   -108.77051    27092.987    1.1041704    -9932.563   -11733.034    1800.4711      30.0344      30.0344      30.0344 
   85100    298.94681    43.642002    27056.262    1.1056691   -9898.1702   -11679.486    1781.3162    30.020823    30.020823    30.020823 
   85150    304.67284    420.46099    27021.376    1.1070966   -9891.8543    -11707.29    1815.4355    30.007915    30.007915    30.007915 
   85200    307.80917     263.7932    27005.597    1.1077434   -9901.3193   -11735.443    1834.1238    30.002073    30.002073    30.002073 
   85250    304.27959    363.51839    27005.514    1.1077468   -9917.7851   -11730.877    1813.0923    30.002042    30.002042    30.002042 
   85300    304.38486    873.20231    27023.063    1.1070275     -9928.71    -11742.43    1813.7196    30.008539    30.008539    30.008539 
   85350    298.78822   -180.82226    27069.429    1.1051313   -9962.1404   -11742.512    1780.3712    30.025693    30.025693    30.025693 
   85400    295.00208    171.88743    27114.888    1.1032785   -9968.5787    -11726.39     1757.811    30.042491    30.042491    30.042491 
   85450    296.54417   -175.48032    27156.627    1.1015828   -9985.1818   -11752.182    1766.9998    30.057898    30.057898    30.057898 
   85500    302.86122   -121.64286    27185.771    1.1004018   -9972.4714   -11777.112    1804.6407    30.068647    30.068647    30.068647 
   85550     311.4828   -78.116979    27211.269    1.0993707   -9965.9397   -11821.953    1856.0137    30.078045    30.078045    30.078045 
   85600    298.79263   -46.972792     27242.95    1.0980923   -9963.7648   -11744.162    1780.3975    30.089713    30.089713    30.089713 
   85650    302.43812   -484.01532    27275.019    1.0968012    -9916.088   -11718.208    1802.1197    30.101515    30.101515    30.101515 
   85700    308.38363     -178.859    27294.571    1.0960155   -9874.8763   -11712.423    1837.5468    30.108706    30.108706    30.108706 
   85750    310.82875    89.704653    27314.494    1.0952161   -9860.5807   -11712.697    1852.1164     30.11603     30.11603     30.11603 
   85800    312.88926      28.2669    27340.163    1.0941878   -9858.2934   -11722.688    1864.3943    30.125461    30.125461    30.125461 
   85850    306.66234   -375.46791     27367.48    1.0930956   -9896.5532   -11723.844    1827.2903    30.135491    30.135491    30.135491 
   85900    302.29885   -600.66647    27379.721    1.0926069   -9948.5112   -11749.801    1801.2898    30.139983    30.139983    30.139983 
   85950    307.60558    81.117718     27372.75    1.0928852   -9958.2729   -11791.184    1832.9107    30.137425    30.137425    30.137425 
   86000    297.59276   -91.053104    27367.839    1.0930813   -9967.1627   -11740.411    1773.2479    30.135622    30.135622    30.135622 
   86050    303.73966   -645.11741    27359.739    1.0934049   -9967.3032   -11777.178    1809.8751    30.132649    30.132649    30.132649 
   86100    300.04078   -281.37762    27329.233    1.0946254   -9974.0558   -11761.891    1787.8348    30.121446    30.121446    30.121446 
   86150    301.85969   -306.86554    27282.624    1.0964954   -9960.0509   -11758.724     1798.673    30.104312    30.104312    30.104312 
   86200    301.37302    166.54727    27232.128    1.0985287   -9969.5906   -11765.364    1795.7731    30.085728    30.085728    30.085728 
   86250     312.8339    498.28349    27196.187    1.0999804   -9960.6266   -11824.691    1864.0644    30.072487    30.072487    30.072487 
   86300    303.38049     200.9625    27187.805    1.1003195   -9992.9358   -11800.671    1807.7349    30.069397    30.069397    30.069397 
   86350    295.65464    -507.4093     27187.78    1.1003206   -10039.119   -11800.818    1761.6993    30.069387    30.069387    30.069387 
   86400    289.39374    42.130556    27177.159    1.1007506   -10052.628   -11777.021    1724.3929    30.065471    30.065471    30.065471 
   86450    296.46536    377.97265    27164.526    1.1012625   -10051.366   -11817.896    1766.5301    30.060812    30.060812    30.060812 
   86500    298.24962    374.63189    27159.007    1.1014863   -10037.489   -11814.651    1777.1619    30.058776    30.058776    30.058776 
   86550     298.5208    438.50367    27164.301    1.1012716   -10015.608   -11794.386    1778.7778    30.060729    30.060729    30.060729 
   86600    301.20502    565.16356    27187.328    1.1003388   -9967.1653   -11761.937    1794.7721    30.069221    30.069221    30.069221 
   86650    303.23747    66.627247    27234.767    1.0984222   -9929.6782   -11736.561    1806.8827      30.0867      30.0867      30.0867 
   86700    302.38672   -218.34553    27286.939     1.096322   -9936.7103   -11738.524    1801.8134      30.1059      30.1059      30.1059 
   86750    299.49245    45.779497    27331.463    1.0945361   -9935.4407   -11720.008    1784.5675    30.122265    30.122265    30.122265 
   86800    298.61098    124.35451    27378.499    1.0926557   -9953.3737   -11732.689    1779.3151    30.139535    30.139535    30.139535 
   86850    299.91718   -564.92162    27431.021    1.0905636   -9967.2117    -11754.31    1787.0983    30.158795    30.158795    30.158795 
   86900    295.79951   -351.62357    27470.438    1.0889987   -9961.2592   -11723.822    1762.5626    30.173234    30.173234    30.173234 
   86950    304.62428   -1487.9783    27487.499    1.0883228   -9922.1919   -11737.338    1815.1462    30.179479    30.179479    30.179479 
   87000    304.03354   -478.62424    27445.553    1.0899862   -9897.0232   -11708.649    1811.6262     30.16412     30.16412     30.16412 
   87050    308.11018    -649.5199    27369.247    1.0930251    -9882.563    -11718.48    1835.9174    30.136139    30.136139    30.136139 
   87100    304.69649   -11.325624    27275.235    1.0967925   -9885.5275   -11701.104    1815.5765    30.101594    30.101594    30.101594 
   87150    296.58051    155.15011    27180.909    1.1005987   -9944.1835     -11711.4    1767.2163    30.066854    30.066854    30.066854 
   87200    302.21859    256.13782    27092.127    1.1042054   -9988.5325   -11789.344    1800.8116    30.034082    30.034082    30.034082 
   87250      292.748    1086.1623    27021.999     1.107071   -9985.2244   -11729.604    1744.3797    30.008146    30.008146    30.008146 
   87300    301.48419     173.7144    26987.467    1.1084876   -9999.7289   -11796.164    1796.4356    29.995357    29.995357    29.995357 
   87350    300.81816    109.92164    26967.207    1.1093204   -9979.5514   -11772.018    1792.4669     29.98785     29.98785     29.98785 
   87400    294.42565    211.13077    26955.861    1.1097873   -9980.1874   -11734.564    1754.3763    29.983643    29.983643    29.983643 
   87450    300.65635    275.18194    26948.128    1.1101058   -9960.6606   -11752.163    1791.5028    29.980776    29.980776    29.980776 
   87500    301.00171    847.02503     26950.27    1.1100176   -9958.3681   -11751.929    1793.5606     29.98157     29.98157     29.98157 
   87550    306.59852    673.06303    26983.067    1.1086684   -9931.7645   -11758.674      1826.91    29.993727    29.993727    29.993727 
   87600    308.45547    686.68209    27048.606     1.105982   -9897.7529   -11735.728    1837.9749    30.017992    30.017992    30.017992 
   87650    297.73086    546.68988    27143.691    1.1021078   -9903.5551   -11677.626    1774.0708    30.053125    30.053125    30.053125 
   87700    310.96429   -738.93665    27258.574    1.0974629   -9905.2146   -11758.139     1852.924    30.095464    30.095464    30.095464 
   87750    301.26745   -535.51058    27355.665    1.0935677   -9951.8426   -11746.987    1795.1441    30.131154    30.131154    30.131154 
   87800    298.74913   -799.30307    27428.731    1.0906547    -10006.49   -11786.628    1780.1383    30.157956    30.157956    30.157956 
   87850    296.17488   -886.47343    27465.575    1.0891916    -10032.26    -11797.06    1764.7993    30.171453    30.171453    30.171453 
   87900    298.71658   -1115.6879    27459.718    1.0894239     -10035.8   -11815.744    1779.9443    30.169308    30.169308    30.169308 
   87950     285.0135   -659.49825    27403.694    1.0916511   -10051.829   -11750.121    1698.2926    30.148777    30.148777    30.148777 
   88000    290.50328    393.54737    27309.857    1.0954021   -10022.518   -11753.522    1731.0043    30.114325    30.114325    30.114325 
   88050    304.49055    329.79512    27221.326    1.0989646   -9975.7904    -11790.14    1814.3493    30.081749    30.081749    30.081749 
   88100    300.53802    554.06966    27152.429    1.1017531   -9948.7597   -11739.557    1790.7976    30.056349    30.056349    30.056349 
   88150    297.67755    906.36972    27110.364    1.1034626   -9953.6943   -11727.447    1773.7531     30.04082     30.04082     30.04082 
   88200    298.83591    555.68536     27101.65    1.1038174   -9940.9201   -11721.576    1780.6554    30.037601    30.037601    30.037601 
   88250    313.56703   -136.28582    27117.391    1.1031767   -9931.4908   -11799.924    1868.4329    30.043415    30.043415    30.043415 
   88300    298.33004    671.93225     27142.84    1.1021423   -9952.5459   -11730.187    1777.6411    30.052811    30.052811    30.052811 
   88350    296.81736     640.1872    27188.854    1.1002771   -9972.8412   -11741.469    1768.6276    30.069783    30.069783    30.069783 
   88400    300.59039   -709.45457     27251.07    1.0977651   -9982.1525   -11773.262    1791.1097    30.092702    30.092702    30.092702 
   88450    298.75546   -420.89038    27287.861     1.096285   -9971.4473   -11751.623     1780.176    30.106239    30.106239    30.106239 
   88500    296.51002    -470.1461    27300.737     1.095768   -9964.2241    -11731.02    1766.7962    30.110973    30.110973    30.110973 
   88550    302.40764   -663.06442    27291.602    1.0961347   -9927.0197   -11728.958     1801.938    30.107614    30.107614    30.107614 
   88600    306.06654   -65.463562    27255.693    1.0975789   -9864.4499    -11688.19    1823.7401    30.094404    30.094404    30.094404 
   88650    305.69436    339.15024    27211.545    1.0993596   -9857.7866   -11679.309    1821.5224    30.078146    30.078146    30.078146 
   88700    298.84068    468.82455    27176.531     1.100776   -9866.0273   -11646.711    1780.6838     30.06524     30.06524     30.06524 
   88750    305.19537   -187.35344    27149.256    1.1018819   -9881.2693   -11699.818    1818.5491    30.055178    30.055178    30.055178 
   88800    302.41465     423.9105    27119.421    1.1030941   -9902.0467   -11704.026    1801.9798    30.044165    30.044165    30.044165 
   88850    302.65597    496.63773    27112.666    1.1033689   -9917.3173   -11720.735    1803.4177     30.04167     30.04167     30.04167 
   88900    299.74957   -112.39367     27128.53    1.1027237   -9951.2551   -11737.355    1786.0995    30.047529    30.047529    30.047529 
   88950    304.18902     48.25302    27144.336    1.1020816    -9972.732   -11785.285    1812.5526    30.053363    30.053363    30.053363 
   89000    303.75761    417.71562    27163.424    1.1013071   -9998.1859   -11808.168     1809.982    30.060406    30.060406    30.060406 
   89050    294.90417    339.76643    27201.838    1.0997519   -10013.078   -11770.306    1757.2276    30.074569    30.074569    30.074569 
   89100    290.42989   -556.78939    27245.635     1.097984   -10017.527   -11748.094     1730.567    30.090702    30.090702    30.090702 
   89150    292.83785   -270.73542    27262.054    1.0973228   -10004.405    -11749.32    1744.9151    30.096745    30.096745    30.096745 
   89200    298.16427   -76.074651    27262.849    1.0972908   -9991.9317   -11768.585    1776.6533    30.097037    30.097037    30.097037 
   89250     300.3058    298.83486    27261.955    1.0973268   -9967.1866   -11756.601     1789.414    30.096708    30.096708    30.096708 
   89300    299.36837    151.57007    27274.693    1.0968143   -9955.8039   -11739.632    1783.8282    30.101395    30.101395    30.101395 
   89350    301.92441    -43.12393    27295.346    1.0959844   -9960.6599   -11759.719    1799.0586    30.108991    30.108991    30.108991 
   89400    297.86683   -32.413512    27316.338    1.0951421   -9952.2765   -11727.157     1774.881    30.116708    30.116708    30.116708 
   89450    296.61228   -307.88053    27336.758    1.0943241   -9929.9623   -11697.368    1767.4056     30.12421     30.12421     30.12421 
   89500    294.74129   -502.19997    27341.553    1.0941322   -9903.5634    -11659.82     1756.257    30.125971    30.125971    30.125971 
   89550    299.87635   -154.60485    27319.796    1.0950035   -9850.7586   -11637.614     1786.855    30.117978    30.117978    30.117978 
   89600    310.10504    78.074413    27283.884    1.0964448   -9837.3487   -11685.153    1847.8041    30.104776    30.104776    30.104776 
   89650    304.66314    672.10336    27257.237    1.0975167   -9846.5984   -11661.976    1815.3777    30.094972    30.094972    30.094972 
   89700     306.8949    120.04781    27255.182    1.0975994   -9867.4052   -11696.081     1828.676    30.094216    30.094216    30.094216 
   89750    302.43705    10.514421    27260.508     1.097385   -9881.4191   -11683.532    1802.1133    30.096176    30.096176    30.096176 
   89800    304.25977    -561.1819    27262.611    1.0973004   -9896.6343   -11709.608    1812.9742     30.09695     30.09695     30.09695 
   89850    303.01912    227.87648    27246.826    1.0979361   -9893.2677   -11698.849    1805.5816     30.09114     30.09114     30.09114 
   89900    298.35726    746.77459    27236.542    1.0983506   -9929.8338   -11707.637    1777.8033    30.087354    30.087354    30.087354 
   89950    298.71511    214.96206    27249.476    1.0978293   -9967.1458   -11747.081    1779.9356    30.092115    30.092115    30.092115 
SHAKE stats (type/ave/delta) on step 90000
  1 0.957958 0.00209381
  1 104.404 0.112819
   90000    288.49716    119.04208    27271.023    1.0969619   -9971.6586   -11690.709    1719.0505    30.100045    30.100045    30.100045 
   90050    301.05741   -289.03652    27292.022    1.0961179   -9958.5314   -11752.424    1793.8925    30.107769    30.107769    30.107769 
   90100    296.17625     558.2295    27307.255    1.0955064   -9949.6367   -11714.444    1764.8075    30.113369    30.113369    30.113369 
   90150     309.1034   -57.807346    27338.959     1.094236    -9923.705   -11765.541    1841.8356    30.125019    30.125019    30.125019 
   90200    298.79811    322.01549    27377.619    1.0926908   -9930.0802    -11710.51    1780.4301    30.139212    30.139212    30.139212 
   90250    302.58552   -218.75221    27421.023    1.0909612   -9918.6039   -11721.602     1802.998    30.155131    30.155131    30.155131 
   90300    289.82459   -187.41661    27450.737    1.0897803   -9936.0607   -11663.021    1726.9602    30.166019    30.166019    30.166019 
   90350    295.37004   -393.96972    27457.836    1.0894985   -9932.4791   -11692.483    1760.0036     30.16862     30.16862     30.16862 
   90400    298.08189   -223.73694    27441.145    1.0901613   -9930.0369   -11706.199    1776.1625    30.162505    30.162505    30.162505 
   90450     303.2138   -45.590729    27412.562     1.091298   -9942.5981    -11749.34    1806.7416    30.152029    30.152029    30.152029 
   90500    300.28093    36.750536    27379.219     1.092627   -9951.5069   -11740.773    1789.2657    30.139799    30.139799    30.139799 
   90550    293.23832    317.58132    27343.991    1.0940346   -9970.9555   -11718.257    1747.3014    30.126867    30.126867    30.126867 
   90600    293.40098    190.26179    27313.845    1.0952421   -9986.9487   -11735.219    1748.2706    30.115792    30.115792    30.115792 
   90650    289.25444    359.72028    27287.456    1.0963013    -10000.78   -11724.343    1723.5629    30.106089    30.106089    30.106089 
   90700     297.3614    213.54858    27267.936    1.0970861   -9974.0413   -11745.911    1771.8693    30.098909    30.098909    30.098909 
   90750    292.95684     249.3652    27253.328    1.0976741   -9943.5711   -11689.195    1745.6242    30.093533    30.093533    30.093533 
   90800    306.46756    631.56565    27242.833     1.098097   -9912.5871   -11738.717    1826.1296     30.08967     30.08967     30.08967 
   90850    305.75952    740.94273    27264.123    1.0972395   -9888.8232   -11710.734    1821.9107    30.097506    30.097506    30.097506 
   90900    303.59431   -171.57378     27317.57    1.0950928   -9903.3139   -11712.323     1809.009     30.11716     30.11716     30.11716 
   90950    296.90358   -628.79967     27363.21    1.0932662   -9917.0412   -11686.183    1769.1413    30.133924    30.133924    30.133924 
   91000    296.85594   -919.83292    27379.974    1.0925968   -9983.8137   -11752.671    1768.8575    30.140076    30.140076    30.140076 
   91050    296.04799   -115.96181    27362.389     1.093299    -10013.22   -11777.263    1764.0432    30.133622    30.133622    30.133622 
   91100    301.88407   -353.08425    27338.822    1.0942415   -10019.339   -11818.157    1798.8183    30.124968    30.124968    30.124968 
   91150    292.45169   -537.54739    27309.017    1.0954357   -10013.641   -11756.255    1742.6141    30.114017    30.114017    30.114017 
   91200    300.28978   -418.72281    27259.586    1.0974221   -10003.752    -11793.07    1789.3185    30.095837    30.095837    30.095837 
   91250     300.0862    769.32836    27195.056    1.1000262   -9984.6579   -11772.763    1788.1054     30.07207     30.07207     30.07207 
   91300    310.31498    914.72533    27155.266     1.101638   -9952.4406   -11801.496     1849.055    30.057396    30.057396    30.057396 
   91350    307.10157    784.48576    27156.177     1.101601   -9946.1557   -11776.063    1829.9075    30.057732    30.057732    30.057732 
   91400    302.11971    730.59156    27193.901    1.1000729   -9961.2854   -11761.508    1800.2224    30.071644    30.071644    30.071644 
   91450    295.72651   -653.32265    27255.101    1.0976027   -9977.8791   -11740.007    1762.1276    30.094186    30.094186    30.094186 
   91500    296.86207   -183.25272    27292.224    1.0961098   -9995.5512   -11764.445     1768.894    30.107843    30.107843    30.107843 
   91550     295.3558   -295.52206     27311.69    1.0953285   -10015.282   -11775.201    1759.9187    30.114999    30.114999    30.114999 
   91600    296.16528   -1020.9761    27316.997    1.0951157   -10029.428    -11794.17    1764.7421     30.11695     30.11695     30.11695 
   91650    290.62714   -246.04285     27289.67    1.0962123   -10052.436   -11784.178    1731.7423    30.106904    30.106904    30.106904 
   91700    286.66472   -255.26969    27241.584    1.0981473   -10059.718    -11767.85    1708.1317     30.08921     30.08921     30.08921 
   91750    291.24102    589.54184    27182.172    1.1005476   -9999.9228   -11735.323    1735.4002     30.06732     30.06732     30.06732 
   91800    295.10953    593.42519    27135.138    1.1024551   -9941.9519   -11700.403    1758.4513    30.049968    30.049968    30.049968 
   91850     302.2604    484.50412     27103.03    1.1037612   -9927.4009   -11728.462    1801.0607    30.038111    30.038111    30.038111 
   91900    303.03734    552.87894    27088.983    1.1043336   -9911.7237   -11717.414    1805.6902     30.03292     30.03292     30.03292 
   91950     297.8152    311.15467    27092.859    1.1041756   -9931.3075   -11705.881    1774.5734    30.034353    30.034353    30.034353 
   92000    299.16082    350.29643    27110.979    1.1034376    -9939.211   -11721.802    1782.5914    30.041047    30.041047    30.041047 
   92050    300.41111    170.85454    27146.373    1.1019989   -9950.5095   -11740.551    1790.0415    30.054114    30.054114    30.054114 
   92100    294.28956    684.35853    27192.058    1.1001474   -9965.7478   -11719.313    1753.5653    30.070965    30.070965    30.070965 
   92150    294.76297   -80.741831    27254.835    1.0976134   -10004.205   -11760.591    1756.3862    30.094088    30.094088    30.094088 
   92200    290.39715   -858.74525    27317.616    1.0950909   -10031.787   -11762.159    1730.3719    30.117177    30.117177    30.117177 
   92250    286.24332   -629.15413    27354.894    1.0935986   -10033.761   -11739.382    1705.6207    30.130871    30.130871    30.130871 
   92300    292.71562   -680.28971    27368.563    1.0930524   -9990.4382   -11734.625    1744.1868    30.135888    30.135888    30.135888 
   92350     293.5703   -37.049178    27357.687    1.0934869   -9937.9306    -11687.21    1749.2795    30.131896    30.131896    30.131896 
   92400    299.67051   -203.58269    27332.034    1.0945132   -9919.9347   -11705.563    1785.6285    30.122475    30.122475    30.122475 
   92450    302.55675   -194.91372    27291.978    1.0961196   -9921.7346   -11724.561    1802.8265    30.107752    30.107752    30.107752 
   92500     296.8914    90.901536    27240.213    1.0982026   -9911.6127   -11680.682    1769.0688    30.088705    30.088705    30.088705 
   92550    297.28582     316.7493    27184.861    1.1004387   -9884.4871   -11655.906     1771.419    30.068311    30.068311    30.068311 
   92600    306.94716    31.866257    27136.078     1.102417   -9857.6148   -11686.602    1828.9874    30.050315    30.050315    30.050315 
   92650    303.27104    858.23743    27092.538    1.1041887    -9850.824   -11657.907    1807.0827    30.034234    30.034234    30.034234 
   92700    308.90981    277.55941    27075.879     1.104868    -9886.402   -11727.084    1840.6821    30.028077    30.028077    30.028077 
   92750    295.90172    928.22713    27081.485    1.1046393   -9933.6508   -11696.822    1763.1716    30.030149    30.030149    30.030149 
   92800    301.61412   -286.91976    27117.626    1.1031671   -9962.0287   -11759.238    1797.2097    30.043502    30.043502    30.043502 
   92850    300.99737   -150.67184    27157.576    1.1015443   -9964.1344   -11757.669    1793.5348    30.058248    30.058248    30.058248 
   92900    297.40428   -579.57833    27201.273    1.0997748     -9945.02   -11717.145    1772.1248    30.074361    30.074361    30.074361 
   92950     304.9221   -902.18478    27225.799     1.098784   -9946.3082   -11763.229    1816.9208    30.083397    30.083397    30.083397 
   93000    305.16092   -89.251425    27221.569    1.0989547   -9938.8303   -11757.174    1818.3438    30.081839    30.081839    30.081839 
   93050    297.64733   -330.54135    27211.838    1.0993477   -9939.0966    -11712.67    1773.5731    30.078254    30.078254    30.078254 
   93100     296.6599    158.35327    27190.805    1.1001981   -9907.5056   -11675.195    1767.6893    30.070503    30.070503    30.070503 
   93150    309.31801    751.72132     27173.64    1.1008931   -9848.4693   -11691.584    1843.1144    30.064174    30.064174    30.064174 
   93200    311.46681    483.51688    27184.021    1.1004727   -9813.5604   -11669.479    1855.9183    30.068002    30.068002    30.068002 
   93250    312.68552   -125.21147    27217.456    1.0991208   -9811.9815   -11675.162    1863.1802    30.080324    30.080324    30.080324 
   93300    300.58902    123.47381    27254.891    1.0976112   -9832.7252   -11623.827    1791.1015    30.094108    30.094108    30.094108 
   93350    311.22313    -504.6575    27291.657    1.0961325   -9861.2532    -11715.72    1854.4664    30.107634    30.107634    30.107634 
   93400    304.76326   -576.42035    27312.954    1.0952778   -9894.2699   -11710.244    1815.9743    30.115464    30.115464    30.115464 
   93450    306.95763   -422.56809    27314.454    1.0952177   -9901.8384   -11730.888    1829.0498    30.116015    30.116015    30.116015 
   93500     296.8721    46.179827    27304.981    1.0955976     -9917.16   -11686.114    1768.9538    30.112533    30.112533    30.112533 
   93550    296.66106    292.85763    27293.862     1.096044   -9925.3319   -11693.028    1767.6963    30.108445    30.108445    30.108445 
   93600    296.25652    190.20315    27292.425    1.0961017   -9947.7457   -11713.031    1765.2857    30.107917    30.107917    30.107917 
   93650    301.42688   -592.60291    27292.526    1.0960976    -9954.711   -11750.805    1796.0941    30.107954    30.107954    30.107954 
   93700    301.95336   -269.18108    27273.322    1.0968694   -9958.2397   -11757.471    1799.2311    30.100891    30.100891    30.100891 
   93750    295.56629    305.85505     27244.78    1.0980185   -9978.4032   -11739.576    1761.1729    30.090386    30.090386    30.090386 
   93800    302.73961   -571.71446    27223.195    1.0988891    -9997.786   -11801.702    1803.9161    30.082438    30.082438    30.082438 
   93850    298.33883   -283.60834    27189.686    1.1002434    -10008.53   -11786.223    1777.6935     30.07009     30.07009     30.07009 
   93900    290.68817    128.14114    27147.398    1.1019573    -10015.73   -11747.836    1732.1059    30.054493    30.054493    30.054493 
   93950    302.18853    715.80377    27103.461    1.1037436   -9989.0214   -11789.654    1800.6325     30.03827     30.03827     30.03827 
   94000    306.25028    558.52731    27082.276     1.104607   -9961.5741   -11786.409    1824.8349    30.030442    30.030442    30.030442 
   94050    305.26074    996.77665    27090.193    1.1042842    -9927.814   -11746.753    1818.9386    30.033368    30.033368    30.033368 
   94100    304.16733    321.71196    27134.833    1.1024675   -9909.7235   -11722.147    1812.4234    30.049855    30.049855    30.049855 
   94150     299.4803   -105.26044     27203.22     1.099696   -9909.8635   -11694.359    1784.4951    30.075079    30.075079    30.075079 
   94200    306.22762   -354.94285     27274.53    1.0968208   -9900.5829   -11725.283    1824.6999    30.101335    30.101335    30.101335 
   94250    310.17843   -521.76282     27333.22    1.0944657   -9895.4719   -11743.713    1848.2414    30.122911    30.122911    30.122911 
   94300    301.70306     28.52388    27378.043    1.0926739   -9926.4195   -11724.159    1797.7397    30.139367    30.139367    30.139367 
   94350    301.26283   -22.142219    27424.769    1.0908122   -9989.2768   -11784.393    1795.1166    30.156504    30.156504    30.156504 
   94400    292.96095    -560.6496    27468.944     1.089058   -10043.339   -11788.988    1745.6486    30.172687    30.172687    30.172687 
   94450    290.97499   -788.96633    27487.698     1.088315   -10034.205    -11768.02     1733.815    30.179552    30.179552    30.179552 
   94500    287.08321   -746.77328    27469.688    1.0890285   -10007.415    -11718.04    1710.6253    30.172959    30.172959    30.172959 
   94550    299.12795   -307.70333     27416.52    1.0911404   -9973.8438   -11756.239    1782.3955     30.15348     30.15348     30.15348 
   94600    295.77987    75.191242     27343.47    1.0940555   -9958.4288   -11720.874    1762.4455    30.126675    30.126675    30.126675 
   94650    308.45778    51.266131    27265.756    1.0971738    -9903.895   -11741.884    1837.9887    30.098107    30.098107    30.098107 
   94700    301.83625    721.38055    27193.479      1.10009   -9907.0767    -11705.61    1798.5333    30.071488    30.071488    30.071488 
   94750    302.57549    1437.0636    27156.181    1.1016009   -9900.3881   -11703.326    1802.9382    30.057734    30.057734    30.057734 
   94800    293.10294    749.87721    27170.869    1.1010054   -9918.6697   -11665.164    1746.4947    30.063152    30.063152    30.063152 
   94850    307.09876   -217.88776    27209.211    1.0994539   -9944.3586   -11774.249    1829.8908    30.077286    30.077286    30.077286 
   94900     296.2646    204.33701    27248.389    1.0978731   -9997.9828   -11763.317    1765.3339    30.091715    30.091715    30.091715 
   94950    299.35593   -397.77014    27291.359    1.0961445   -10018.388   -11802.142     1783.754    30.107525    30.107525    30.107525 
   95000    288.80497   -442.77294    27325.773     1.094764   -10023.685    -11744.57    1720.8846    30.120175    30.120175    30.120175 
   95050    295.68387   -593.73966    27342.587    1.0940908   -9995.3492   -11757.223    1761.8735    30.126351    30.126351    30.126351 
   95100    299.66844   -413.47374    27333.311    1.0944621   -9980.9325   -11766.549    1785.6161    30.122944    30.122944    30.122944 
   95150    298.05476    104.97701    27302.964    1.0956786   -9958.0063   -11734.007    1776.0008    30.111792    30.111792    30.111792 
   95200    299.89417    627.42247    27271.924    1.0969257   -9953.0482   -11740.009    1786.9612    30.100376    30.100376    30.100376 
   95250    299.75219    785.66941    27263.844    1.0972508    -9953.386   -11739.501    1786.1152    30.097403    30.097403    30.097403 
   95300    307.29391   -38.351048    27280.554    1.0965786   -9964.7319   -11795.785    1831.0536    30.103551    30.103551    30.103551 
   95350    293.36558    705.69734    27302.517    1.0956965   -10005.275   -11753.335    1748.0596    30.111628    30.111628    30.111628 
   95400    287.23009    56.035204    27344.068    1.0940315   -10042.478   -11753.978    1711.5005    30.126895    30.126895    30.126895 
   95450    296.20294   -682.48659    27385.342    1.0923827   -10071.007   -11835.973    1764.9665    30.142046    30.142046    30.142046 
   95500    287.47024   -861.09464    27402.465    1.0917001   -10075.713   -11788.644    1712.9315    30.148327    30.148327    30.148327 
   95550    291.32338   -595.50981    27386.841    1.0923229   -10026.852   -11762.743    1735.8909    30.142596    30.142596    30.142596 
   95600     302.0459   -196.72149    27351.365    1.0937397   -9952.2286   -11752.011    1799.7826    30.129575    30.129575    30.129575 
   95650    305.52318   -41.258058    27310.948    1.0953583   -9929.5697   -11750.072    1820.5024    30.114727    30.114727    30.114727 
   95700    300.00892   -35.091638     27270.61    1.0969785   -9934.8829   -11722.528    1787.6449    30.099893    30.099893    30.099893 
   95750    294.23887    567.84244    27234.623     1.098428   -9926.8153   -11680.079    1753.2633    30.086647    30.086647    30.086647 
   95800    307.42481    133.70501    27210.678    1.0993946   -9922.5167    -11754.35    1831.8335    30.077827    30.077827    30.077827 
   95850    299.52563     607.9603    27197.826    1.0999141   -9917.6576   -11702.423    1784.7652    30.073091    30.073091    30.073091 
   95900    308.69513   -441.41315    27206.419    1.0995667   -9908.4829   -11747.886     1839.403    30.076257    30.076257    30.076257 
   95950    297.67853   -56.255772    27204.735    1.0996348   -9929.6216   -11703.381     1773.759    30.075637    30.075637    30.075637 
   96000    302.37447   -330.31785    27192.742    1.1001198   -9960.9377   -11762.678    1801.7404    30.071217    30.071217    30.071217 
   96050    299.19152    17.699864    27174.408     1.100862   -9987.6191   -11770.393    1782.7743    30.064457    30.064457    30.064457 
   96100    297.23454   -200.29513    27161.576    1.1013821    -10000.03   -11771.143    1771.1134    30.059724    30.059724    30.059724 
   96150    298.30908    265.29257    27152.525    1.1017492   -9997.0582   -11774.574    1777.5162    30.056385    30.056385    30.056385 
   96200    300.09169     497.3437    27155.297    1.1016367    -9974.875   -11763.013    1788.1381    30.057407    30.057407    30.057407 
   96250    301.25317    601.69807    27185.956    1.1003944   -9973.7823   -11768.841     1795.059    30.068715    30.068715    30.068715 
   96300    307.09503    176.27091    27247.673    1.0979019   -9909.5672   -11739.436    1829.8685    30.091452    30.091452    30.091452 
   96350    305.09261   -457.81037    27321.697    1.0949273     -9884.04   -11701.977    1817.9368    30.118677    30.118677    30.118677 
   96400    303.02739   -218.87159    27384.793    1.0924045   -9885.6065   -11691.237    1805.6309    30.141844    30.141844    30.141844 
   96450    299.38591    72.746238    27437.883    1.0902909   -9883.5806   -11667.513    1783.9326     30.16131     30.16131     30.16131 
   96500    302.30162   -294.83791    27490.479    1.0882048   -9883.9894   -11685.296    1801.3063     30.18057     30.18057     30.18057 
   96550    297.67851    232.13429    27534.623    1.0864602   -9902.0775   -11675.836    1773.7589    30.196716    30.196716    30.196716 
   96600    300.37377   -357.29912    27581.881    1.0845987   -9936.4594   -11726.278    1789.8189    30.213982    30.213982    30.213982 
   96650    297.57371   -507.09094    27619.794    1.0831099   -9955.8718   -11729.006    1773.1344    30.227819    30.227819    30.227819 
   96700    294.21944   -157.44142    27637.849    1.0824023   -9983.8088   -11736.956    1753.1475    30.234404    30.234404    30.234404 
   96750    305.17146   -696.22773    27641.527    1.0822583   -10012.519   -11830.926    1818.4066    30.235745    30.235745    30.235745 
   96800    288.22521   -150.24887    27625.743    1.0828767   -10061.739   -11779.169    1717.4301    30.229989    30.229989    30.229989 
   96850    292.10862   -50.923942    27600.508    1.0838668   -10093.761   -11834.331    1740.5699    30.220781    30.220781    30.220781 
   96900    287.45434   -38.934129     27564.62    1.0852779   -10081.332   -11794.168    1712.8367    30.207678    30.207678    30.207678 
   96950    289.50597    56.073358    27519.622    1.0870525   -10049.075   -11774.137    1725.0617    30.191231    30.191231    30.191231 
   97000    290.85131   -144.09288    27471.666    1.0889501   -10031.893   -11764.971    1733.0781    30.173684    30.173684    30.173684 
   97050    298.37675   -358.27499    27410.693    1.0913724   -10016.253   -11794.172    1777.9194    30.151344    30.151344    30.151344 
   97100    298.74162    758.39935    27337.023    1.0943135   -9983.5264    -11763.62    1780.0935    30.124308    30.124308    30.124308 
   97150    301.98384    839.31379     27287.45    1.0963015   -9954.3074    -11753.72    1799.4128    30.106087    30.106087    30.106087 
   97200    297.51507    332.95281    27268.791    1.0970517   -9943.9404   -11716.725     1772.785    30.099224    30.099224    30.099224 
   97250    302.23431    299.00429    27260.617    1.0973806   -9934.6083   -11735.514    1800.9053    30.096216    30.096216    30.096216 
   97300    302.16671    587.10528    27266.068    1.0971612   -9928.4458   -11728.948    1800.5024    30.098222    30.098222    30.098222 
   97350    296.63681    392.33951    27306.761    1.0955262   -9935.8496   -11703.401    1767.5518    30.113187    30.113187    30.113187 
   97400    295.12595    52.764102    27375.959    1.0927571   -9924.5191   -11683.068    1758.5491    30.138603    30.138603    30.138603 
   97450    300.70167   -1123.3441    27447.582    1.0899056   -9923.2262   -11714.999    1791.7728    30.164863    30.164863    30.164863 
   97500    295.58089   -313.88706    27481.769    1.0885498   -9907.8212   -11669.081    1761.2599    30.177382    30.177382    30.177382 
   97550    307.62287   -704.37541    27491.383    1.0881691   -9885.5734   -11718.587    1833.0137    30.180901    30.180901    30.180901 
   97600    301.01662   -555.00113    27479.712    1.0886312   -9860.4298   -11654.079    1793.6494    30.176629    30.176629    30.176629 
   97650    297.08139   -155.80882    27446.028    1.0899673    -9865.819    -11636.02    1770.2008    30.164294    30.164294    30.164294 
   97700    301.71861   -199.24415    27394.904    1.0920014   -9848.2378    -11646.07    1797.8324    30.145553    30.145553    30.145553 
   97750    305.51211    244.45393    27335.331    1.0943812   -9821.1503   -11641.587    1820.4365    30.123686    30.123686    30.123686 
   97800    309.45004    852.23128    27291.985    1.0961194   -9817.7653   -11661.666    1843.9012    30.107755    30.107755    30.107755 
   97850    310.47058   -24.288259    27279.624     1.096616   -9836.7798   -11686.762    1849.9822    30.103209    30.103209    30.103209 
   97900    301.43664   -28.268409    27268.894    1.0970475   -9894.8475       -11691    1796.1522    30.099262    30.099262    30.099262 
   97950    301.33567    76.430826    27256.799    1.0975343   -9923.2342   -11718.785    1795.5505    30.094811    30.094811    30.094811 
   98000    301.48767   -406.50118    27245.204    1.0980014   -9953.5576   -11750.014    1796.4563    30.090543    30.090543    30.090543 
   98050      296.201    277.64594    27224.399    1.0988405   -9951.8294   -11716.784    1764.9549    30.082882    30.082882    30.082882 
   98100    297.26097    729.94261    27213.764    1.0992699   -9957.4699   -11728.741    1771.2709    30.078964    30.078964    30.078964 
   98150    302.41431    472.55608    27225.625    1.0987911   -9941.0866   -11743.064    1801.9778    30.083333    30.083333    30.083333 
   98200    306.14633    895.18442    27264.338    1.0972309   -9926.7116   -11750.927    1824.2156    30.097585    30.097585    30.097585 
   98250    303.56967   -355.83581    27341.645    1.0941285   -9921.8168   -11730.679    1808.8621    30.126005    30.126005    30.126005 
   98300    299.37928    -44.95073    27418.774    1.0910507   -9928.9162   -11712.809    1783.8931    30.154307    30.154307    30.154307 
   98350    300.63622   -126.98114    27497.095     1.087943   -9892.0779   -11683.461    1791.3828    30.182991    30.182991    30.182991 
   98400    303.31362   -855.02766    27564.265    1.0852919   -9853.9999   -11661.336    1807.3364    30.207548    30.207548    30.207548 
   98450    307.36063   -801.42018    27595.397    1.0840675   -9843.6079   -11675.059    1831.4512    30.218916    30.218916    30.218916 
   98500    313.70766   -863.25756    27596.511    1.0840237   -9823.4791    -11692.75    1869.2708    30.219323    30.219323    30.219323 
   98550    308.23445   -275.31212    27571.977    1.0849883   -9861.3229   -11697.981    1836.6579    30.210365    30.210365    30.210365 
   98600     292.6211   -236.09264    27533.058     1.086522   -9911.5541   -11655.178    1743.6236    30.196144    30.196144    30.196144 
   98650     303.9883   -325.37782    27472.634    1.0889117   -9896.8258   -11708.182    1811.3566    30.174038    30.174038    30.174038 
   98700    306.68098   -454.37671    27398.588    1.0918546   -9913.0541   -11740.455    1827.4013    30.146905    30.146905    30.146905 
   98750    307.17505   -311.20176    27312.703    1.0952879   -9920.9813   -11751.327    1830.3453    30.115372    30.115372    30.115372 
   98800    296.49505    158.16771    27224.006    1.0988564   -9941.3437   -11708.051    1766.7071    30.082737    30.082737    30.082737 
   98850    300.60353    331.81205    27144.122    1.1020903   -9948.3319    -11739.52     1791.188    30.053284    30.053284    30.053284 
   98900    295.07975    1417.4425    27082.309    1.1046057   -9965.5654   -11723.839    1758.2738    30.030454    30.030454    30.030454 
   98950    292.97963    930.49781    27065.296    1.1053001   -10004.403   -11750.163      1745.76    30.024164    30.024164    30.024164 
   99000    296.19361    318.70097    27083.883    1.1045415   -10020.299    -11785.21    1764.9109    30.031036    30.031036    30.031036 
   99050    290.20458    80.189069     27121.05    1.1030278   -10040.432   -11769.656    1729.2244    30.044767    30.044767    30.044767 
   99100    292.71805    -479.3283    27157.232    1.1015582   -10051.975   -11796.176    1744.2013    30.058121    30.058121    30.058121 
   99150    294.71263   -335.52094    27175.681    1.1008104   -10005.111   -11761.197    1756.0862    30.064927    30.064927    30.064927 
   99200    289.98433    340.40155    27176.407     1.100781   -9946.3217   -11674.234     1727.912    30.065194    30.065194    30.065194 
   99250     296.4642    114.45118    27178.098    1.1007125   -9913.5846   -11680.108    1766.5232    30.065818    30.065818    30.065818 
   99300    309.66179    -28.56245     27187.76    1.1003213   -9884.3866    -11729.55    1845.1629     30.06938     30.06938     30.06938 
   99350    306.18746    -90.84524    27204.825    1.0996311   -9859.9264   -11684.387    1824.4606     30.07567     30.07567     30.07567 
   99400     299.7117    82.367618    27218.853    1.0990644   -9872.1722   -11658.046    1785.8739    30.080839    30.080839    30.080839 
   99450     296.0426   -381.86921     27227.19    1.0987279    -9880.371   -11644.382    1764.0111    30.083909    30.083909    30.083909 
   99500     294.9333   -404.85062    27217.045    1.0991374   -9871.7102   -11629.111    1757.4011    30.080172    30.080172    30.080172 
   99550      303.814    584.50794    27193.587    1.1000856   -9850.0758   -11660.394     1810.318    30.071528    30.071528    30.071528 
   99600     302.1677   -274.51308    27187.539    1.1003303   -9845.7708   -11646.279    1800.5083    30.069299    30.069299    30.069299 
   99650    311.32258   -547.38362    27180.059    1.1006331   -9811.7214    -11666.78    1855.0589    30.066541    30.066541    30.066541 
   99700    311.38191    624.50721    27165.161    1.1012367   -9819.1772    -11674.59    1855.4125    30.061046    30.061046    30.061046 
   99750    309.67659    593.61623    27172.134    1.1009541   -9848.0787    -11693.33    1845.2511    30.063618    30.063618    30.063618 
   99800    300.31285  -0.39988369    27207.094    1.0995394   -9910.3807   -11699.837    1789.4559    30.076506    30.076506    30.076506 
   99850    304.22577   -317.19731    27252.189      1.09772   -9929.1899   -11741.962    1812.7716    30.093114    30.093114    30.093114 
   99900    302.22175    -713.5004    27290.855    1.0961647   -9933.6856   -11734.516    1800.8304     30.10734     30.10734     30.10734 
   99950    293.66408   -483.28397    27304.189    1.0956294   -9928.4259   -11678.264    1749.8383    30.112242    30.112242    30.112242 
SHAKE stats (type/ave/delta) on step 100000
  1 0.957946 0.0020919
  1 104.404 0.0866008
  100000    292.93831   -172.60273    27289.449    1.0962212   -9943.9505   -11689.464    1745.5137    30.106823    30.106823    30.106823 
  100050    298.54485   -86.698004    27260.998    1.0973653    -9924.911   -11703.832     1778.921    30.096356    30.096356    30.096356 
  100100    298.37716   -137.44365     27224.59    1.0988328   -9877.7936   -11655.715    1777.9219    30.082952    30.082952    30.082952 
  100150    304.52406    455.20171    27188.264    1.1003009   -9848.3126   -11662.862     1814.549    30.069566    30.069566    30.069566 
  100200    308.40609    212.55093    27172.682    1.1009319   -9842.8972   -11680.578    1837.6806    30.063821    30.063821    30.063821 
  100250    296.66726    682.13398    27176.286    1.1007859   -9852.5016   -11620.235    1767.7332     30.06515     30.06515     30.06515 
  100300    302.61529    367.14312    27201.253    1.0997755   -9849.8472   -11653.023    1803.1754    30.074354    30.074354    30.074354 
  100350    302.84993   -120.93498    27241.741     1.098141    -9871.575   -11676.149    1804.5735    30.089268    30.089268    30.089268 
  100400    305.28173    99.052331    27286.671    1.0963328   -9879.7777   -11698.841    1819.0637    30.105801    30.105801    30.105801 
  100450    298.81717   -307.41162    27335.571    1.0943716   -9906.2226   -11686.766    1780.5437    30.123774    30.123774    30.123774 
  100500    293.05471   -472.70796    27373.252    1.0928651   -9932.3204   -11678.528    1746.2073    30.137609    30.137609    30.137609 
  100550    304.27045   -681.86921    27387.975    1.0922776   -9907.6912   -11720.729    1813.0379    30.143012    30.143012    30.143012 
  100600    301.36367   -406.36713    27377.298    1.0927036   -9906.5809   -11702.298    1795.7174    30.139094    30.139094    30.139094 
  100650    297.77893   -66.832343    27347.913    1.0938777   -9896.0653   -11670.423    1774.3572    30.128307    30.128307    30.128307 
  100700    299.93861   -142.04902    27310.104    1.0953921   -9891.0813   -11678.307     1787.226    30.114416    30.114416    30.114416 
  100750    300.57816    393.63998    27268.166    1.0970768   -9883.1079   -11674.145    1791.0368    30.098994    30.098994    30.098994 
  100800    292.86708    453.39432    27238.315    1.0982791   -9903.3104     -11648.4    1745.0893    30.088006    30.088006    30.088006 
  100850     301.2318     192.5337    27219.261     1.099048   -9872.1721   -11667.104    1794.9316    30.080989    30.080989    30.080989 
  100900    299.67533    387.76586    27208.601    1.0994785   -9849.6357   -11635.293    1785.6572    30.077062    30.077062    30.077062 
  100950    303.83639    12.925103    27209.196    1.0994545   -9852.3574   -11662.809    1810.4515    30.077281    30.077281    30.077281 
  101000    306.00244    96.425341    27215.934    1.0991823   -9866.0703   -11689.428    1823.3582    30.079763    30.079763    30.079763 
  101050    296.14374    1021.4288    27231.907    1.0985376   -9882.9601   -11647.574    1764.6137    30.085647    30.085647    30.085647 
  101100    291.84106   -331.21369    27277.202    1.0967134     -9925.64   -11664.616    1738.9756    30.102318    30.102318    30.102318 
  101150    303.62228   -548.71655    27317.649    1.0950896   -9934.3241     -11743.5    1809.1756    30.117189    30.117189    30.117189 
  101200    293.59771   -131.39828    27338.851    1.0942403   -9937.4842   -11686.927    1749.4429    30.124979    30.124979    30.124979 
  101250    293.97689   -332.17967    27347.186    1.0939068   -9922.8809   -11674.583    1751.7022     30.12804     30.12804     30.12804 
  101300    298.82818   -470.54419    27332.405    1.0944984   -9901.8339   -11682.443    1780.6094    30.122611    30.122611    30.122611 
  101350    306.80684   -193.54987    27291.801    1.0961267   -9842.0686    -11670.22    1828.1513    30.107687    30.107687    30.107687 
  101400    310.57016   -75.834475    27235.138    1.0984072   -9821.5635   -11672.139    1850.5756    30.086837    30.086837    30.086837 
  101450    305.27949    419.76855    27170.521    1.1010195   -9819.7117   -11638.762    1819.0504    30.063024    30.063024    30.063024 
  101500    301.36498    815.69922    27113.813    1.1033223   -9842.5606   -11638.286    1795.7252    30.042094    30.042094    30.042094 
  101550    301.19942    609.63879    27084.034    1.1045354   -9859.5266   -11654.265    1794.7387    30.031091    30.031091    30.031091 
  101600    305.92118    205.94748    27076.471    1.1048439     -9873.39   -11696.264     1822.874    30.028296    30.028296    30.028296 
  101650    303.80267    55.292272    27081.029    1.1046579   -9900.1339   -11710.384    1810.2505    30.029981    30.029981    30.029981 
  101700    297.18067    -437.1119    27082.154     1.104612   -9916.4058   -11687.198    1770.7924    30.030397    30.030397    30.030397 
  101750    291.93835    57.867923     27063.83    1.1053599   -9941.9185   -11681.474    1739.5553    30.023622    30.023622    30.023622 
  101800    296.09945    531.38613     27043.99    1.1061708   -9933.0349   -11697.385    1764.3498    30.016284    30.016284    30.016284 
  101850    297.15666    561.20005    27045.357    1.1061149   -9929.8782   -11700.528    1770.6493     30.01679     30.01679     30.01679 
  101900    299.23489     856.8588    27067.743    1.1052001   -9903.6434   -11686.676    1783.0328    30.025069    30.025069    30.025069 
  101950    297.22778    309.16753    27118.029    1.1031507   -9909.6263   -11680.699    1771.0731    30.043651    30.043651    30.043651 
  102000    299.09095    379.14707    27189.208    1.1002628   -9911.3926   -11693.568    1782.1751    30.069914    30.069914    30.069914 
  102050    303.93406    -640.4493    27279.734    1.0966116    -9894.798   -11705.831    1811.0334    30.103249    30.103249    30.103249 
  102100    298.97164    -590.0884    27354.875    1.0935993   -9864.0318   -11645.496    1781.4641    30.130864    30.130864    30.130864 
  102150    298.46193   -758.88549    27399.503    1.0918181   -9844.9464   -11623.373     1778.427     30.14724     30.14724     30.14724 
  102200    305.59432   -986.26538    27411.356     1.091346   -9839.4118   -11660.338    1820.9263    30.151587    30.151587    30.151587 
  102250     299.8959   -310.07442    27385.015    1.0923957   -9822.6377   -11609.609    1786.9715    30.141925    30.141925    30.141925 
  102300    304.51061    93.574055    27337.832    1.0942811   -9818.0123   -11632.481    1814.4689    30.124605    30.124605    30.124605 
  102350     297.9111    332.75902    27294.242    1.0960287    -9816.729   -11591.874    1775.1448    30.108585    30.108585    30.108585 
  102400     307.1459   -262.92297    27262.762    1.0972943   -9816.0179    -11646.19    1830.1716    30.097005    30.097005    30.097005 
  102450    305.54725    447.76068    27239.788    1.0982197   -9806.2658   -11626.912    1820.6458    30.088549    30.088549    30.088549 
  102500    305.59777    659.15263    27238.993    1.0982518    -9822.506   -11643.453    1820.9469    30.088256    30.088256    30.088256 
  102550    301.56973     584.6234    27262.047     1.097323   -9847.2845    -11644.23    1796.9453    30.096742    30.096742    30.096742 
  102600    299.48213   -314.32614    27304.358    1.0956226    -9880.051   -11664.557     1784.506    30.112304    30.112304    30.112304 
  102650    303.65253   -639.13049    27337.145    1.0943086   -9899.1676   -11708.523    1809.3559    30.124352    30.124352    30.124352 
  102700    298.00864   -75.729838    27352.382     1.093699    -9890.847   -11666.573     1775.726    30.129948    30.129948    30.129948 
  102750     301.8556   -553.25026    27361.955    1.0933164   -9890.0709    -11688.72    1798.6487    30.133463    30.133463    30.133463 
  102800     290.9195    453.28894    27357.565    1.0934918   -9887.0665   -11620.551    1733.4844    30.131851    30.131851    30.131851 
  102850    295.78132    95.001122    27356.435     1.093537   -9852.4023   -11614.857    1762.4542    30.131436    30.131436    30.131436 
  102900    304.78201     193.7633    27356.717    1.0935257   -9793.7526   -11609.839    1816.0861     30.13154     30.13154     30.13154 
  102950    307.81955    -251.0852    27363.094    1.0932708   -9758.6059   -11592.792    1834.1857    30.133881    30.133881    30.133881 
  103000    307.88465   -637.76075    27355.248    1.0935844   -9753.0491   -11587.623    1834.5736    30.131001    30.131001    30.131001 
  103050     300.3898     315.7441    27321.968    1.0949165   -9781.1505   -11571.065    1789.9145    30.118777    30.118777    30.118777 
  103100    308.94701   -51.253991    27295.642    1.0959725   -9797.8554   -11638.759    1840.9038      30.1091      30.1091      30.1091 
  103150    299.09526    550.45986    27277.377    1.0967064   -9820.4566   -11602.657    1782.2008    30.102382    30.102382    30.102382 
  103200    300.20106      429.205    27277.009    1.0967211   -9855.4379   -11644.228    1788.7898    30.102247    30.102247    30.102247 
  103250    298.04261   -33.144623    27289.949    1.0962011   -9890.3716     -11666.3    1775.9284    30.107006    30.107006    30.107006 
  103300     301.4731   -74.752119     27305.94    1.0955592   -9908.8446   -11705.214    1796.3695    30.112886    30.112886    30.112886 
  103350    289.63161   -67.664723    27319.473    1.0950165   -9921.5904   -11647.401    1725.8103     30.11786     30.11786     30.11786 
  103400    297.38698   -903.73223    27313.502    1.0952559   -9923.8446   -11695.866    1772.0217    30.115665    30.115665    30.115665 
  103450    304.00401   -680.00834    27268.814    1.0970508   -9912.1178   -11723.568    1811.4502    30.099232    30.099232    30.099232 
  103500    296.38126    254.88334     27196.45    1.0999698   -9904.1509    -11670.18     1766.029    30.072583    30.072583    30.072583 
  103550    297.40367    956.13241     27130.76    1.1026331   -9892.9402   -11665.061    1772.1212    30.048352    30.048352    30.048352 
  103600     300.8592    673.74092     27098.65    1.1039396   -9886.3204   -11679.032    1792.7114    30.036492    30.036492    30.036492 
  103650    302.79217    842.68583    27097.483    1.1039871   -9880.8939   -11685.123    1804.2293    30.036062    30.036062    30.036062 
  103700    306.19311   -345.65564    27129.409     1.102688   -9844.0952    -11668.59    1824.4943    30.047853    30.047853    30.047853 
  103750    303.30662    230.11877    27156.827    1.1015747   -9841.8952    -11649.19    1807.2947    30.057972    30.057972    30.057972 
  103800    303.99413    24.680349    27189.168    1.1002644   -9849.3991   -11660.791    1811.3914    30.069899    30.069899    30.069899 
  103850    296.14382    16.809385    27224.308    1.0988442   -9866.6842   -11631.298    1764.6142    30.082848    30.082848    30.082848 
  103900    297.03011   -346.74456    27256.766    1.0975357   -9893.5792   -11663.475    1769.8953    30.094799    30.094799    30.094799 
  103950    304.26963   -370.93355    27277.854    1.0966872   -9903.1194   -11716.152     1813.033    30.102558    30.102558    30.102558 
  104000    304.31832    328.94408    27288.864    1.0962447   -9921.8034   -11735.127    1813.3231    30.106607    30.106607    30.106607 
  104050    296.18011    107.04391    27309.009    1.0954361   -9939.6725   -11704.503    1764.8304    30.114014    30.114014    30.114014 
  104100    302.94833   -598.40663    27328.217    1.0946661    -9955.868   -11761.028    1805.1598    30.121073    30.121073    30.121073 
  104150    296.14759   -469.63804    27324.716    1.0948064   -9996.9208   -11761.558    1764.6367    30.119786    30.119786    30.119786 
  104200    294.03122   -24.100621    27301.442    1.0957396   -10031.915   -11783.941     1752.026    30.111232    30.111232    30.111232 
  104250    296.14749   -169.51448    27270.274     1.096992   -10035.033   -11799.669    1764.6361    30.099769    30.099769    30.099769 
  104300    292.29049    10.123899    27233.847    1.0984593   -10056.368   -11798.021    1741.6536    30.086361    30.086361    30.086361 
  104350    292.59213    634.20193    27203.085    1.0997015   -10017.227   -11760.678    1743.4509    30.075029    30.075029    30.075029 
  104400    303.25274    658.23876     27193.01    1.1001089   -9958.5848   -11765.558    1806.9737    30.071315    30.071315    30.071315 
  104450    308.30768    988.96006    27209.405     1.099446   -9932.2813   -11769.376    1837.0942    30.077358    30.077358    30.077358 
  104500    297.28242    381.04167     27261.33    1.0973519   -9932.8136   -11704.212    1771.3987    30.096478    30.096478    30.096478 
  104550    300.78685   -879.56222    27329.351    1.0946207   -9928.1363   -11720.417    1792.2803    30.121489    30.121489    30.121489 
  104600    300.20099   -550.79868    27371.593    1.0929314   -9914.1157   -11702.905    1788.7894       30.137       30.137       30.137 
  104650    294.74377    -290.4886    27390.144    1.0921912   -9912.4769   -11668.749    1756.2718    30.143807    30.143807    30.143807 
  104700    305.60056   -64.097594    27392.269    1.0921064   -9869.7549   -11690.718    1820.9635    30.144587    30.144587    30.144587 
  104750    306.00086    779.39203    27384.178    1.0924291   -9839.9339   -11663.283    1823.3488    30.141619    30.141619    30.141619 
  104800     309.1901    281.36584     27393.38    1.0920621   -9845.3051   -11687.657    1842.3523    30.144994    30.144994    30.144994 
  104850    307.59633   -107.10587    27413.579    1.0912575    -9915.045   -11747.901    1832.8556    30.152402    30.152402    30.152402 
  104900    295.13888    589.13248    27434.334    1.0904319   -9962.2167   -11720.843    1758.6261    30.160009    30.160009    30.160009 
  104950    291.71764   -59.039502    27467.105    1.0891309   -9971.6759   -11709.916    1738.2402    30.172014    30.172014    30.172014 
  105000    300.27782   -742.06786    27494.278    1.0880545   -9966.8731    -11756.12    1789.2472     30.18196     30.18196     30.18196 
  105050    303.03537   -1252.4169    27490.426    1.0882069   -9962.7938   -11768.472    1805.6784    30.180551    30.180551    30.180551 
  105100    301.93356   -414.39906    27435.314    1.0903929   -9949.8459   -11748.959    1799.1132    30.160369    30.160369    30.160369 
  105150    301.84161     266.7786    27360.143    1.0933888   -9939.6558   -11738.221    1798.5652    30.132798    30.132798    30.132798 
  105200    300.32401    331.72808    27293.134    1.0960732   -9929.1115   -11718.634    1789.5225    30.108178    30.108178    30.108178 
  105250    299.83179    277.12035      27239.5    1.0982313   -9921.2771   -11707.867    1786.5895    30.088443    30.088443    30.088443 
  105300    304.59152     364.5516    27200.746    1.0997961   -9885.1855   -11700.136     1814.951    30.074167    30.074167    30.074167 
  105350     306.3095    301.24946    27179.557    1.1006534   -9872.7996   -11697.987    1825.1878    30.066356    30.066356    30.066356 
  105400    308.02681    400.81747     27173.61    1.1008943   -9866.8253   -11702.246    1835.4206    30.064163    30.064163    30.064163 
  105450    299.95071    534.15031    27184.185     1.100466   -9883.0808   -11670.379    1787.2981    30.068062    30.068062    30.068062 
  105500    296.75708    191.34166     27212.85    1.0993069   -9917.9936   -11686.262    1768.2684    30.078627    30.078627    30.078627 
  105550    297.37926     396.2671    27252.148    1.0977217   -9949.4684   -11721.444    1771.9758    30.093099    30.093099    30.093099 
  105600    300.00183    -157.6137     27309.33    1.0954232    -9972.439   -11760.042    1787.6027    30.114132    30.114132    30.114132 
  105650    297.27669   -364.90825    27369.449     1.093017   -9977.8361   -11749.201    1771.3646    30.136214    30.136214    30.136214 
  105700    302.78516   -407.17145    27414.709    1.0912125   -9977.5808   -11781.768    1804.1875    30.152816    30.152816    30.152816 
  105750    297.85807    20.658479    27447.904    1.0898928   -9981.8446   -11756.673    1774.8288    30.164982    30.164982    30.164982 
  105800    309.94784   -253.40673    27481.709    1.0885521   -9999.5055   -11846.373    1846.8674     30.17736     30.17736     30.17736 
  105850    290.25723   -154.29492    27516.423    1.0871789   -10053.561   -11783.099    1729.5381    30.190061    30.190061    30.190061 
  105900    293.68919   -516.82549    27546.903    1.0859759   -10070.042    -11820.03     1749.988    30.201204    30.201204    30.201204 
  105950    291.15106   -512.95946    27560.653    1.0854341    -10074.23   -11809.094    1734.8641    30.206228    30.206228    30.206228 
  106000    298.28917   -1161.6141    27548.153    1.0859266   -10034.267   -11811.664    1777.3976    30.201661    30.201661    30.201661 
  106050    299.00169   -782.57549    27488.936    1.0882659   -9991.0207   -11772.664    1781.6432    30.180005    30.180005    30.180005 
  106100    300.97072    279.07454    27401.108    1.0917541   -9960.7317   -11754.108    1793.3759    30.147829    30.147829    30.147829 
  106150    302.67061   -103.37665    27316.771    1.0951248   -9937.5209   -11741.026     1803.505    30.116867    30.116867    30.116867 
  106200    312.18946    437.53471    27230.952    1.0985761   -9927.9584   -11788.183    1860.2244    30.085295    30.085295    30.085295 
  106250    302.61181    622.90858    27166.892    1.1011665   -9925.2585   -11728.413    1803.1546    30.061685    30.061685    30.061685 
  106300     304.2667    635.61194    27129.347    1.1026905   -9965.0061   -11778.022    1813.0155     30.04783     30.04783     30.04783 
  106350    297.32654   -212.47196    27115.119    1.1032691   -10009.693   -11781.354    1771.6616    30.042576    30.042576    30.042576 
  106400    300.70245   -221.01465    27100.755    1.1038539   -10008.778   -11800.556    1791.7774     30.03727     30.03727     30.03727 
  106450     292.2203   -85.500573    27081.003     1.104659   -10005.663   -11746.899    1741.2353    30.029971    30.029971    30.029971 
  106500    296.76872    759.72102     27060.08    1.1055131   -9985.6028   -11753.941    1768.3378    30.022236    30.022236    30.022236 
  106550     303.4097    919.29211    27069.586    1.1051249   -9972.7282   -11780.637    1807.9089     30.02575     30.02575     30.02575 
  106600    306.42254    782.02103    27121.393    1.1030139   -9976.0301   -11801.891    1825.8614    30.044893    30.044893    30.044893 
  106650    296.49514    314.46245    27210.794    1.0993899   -9973.3771   -11740.085    1766.7076    30.077869    30.077869    30.077869 
  106700    294.16639   -460.36446    27312.462    1.0952976   -9977.8041   -11730.636    1752.8314    30.115283    30.115283    30.115283 
  106750    301.22463   -484.45963     27395.97    1.0919589   -9946.9914    -11741.88    1794.8889    30.145944    30.145944    30.145944 
  106800    305.75498    -886.9654    27456.586    1.0895482   -9877.5588   -11699.442    1821.8837    30.168161    30.168161    30.168161 
  106850    304.86444   -514.26866    27486.429    1.0883652   -9846.3089   -11662.886    1816.5772    30.179088    30.179088    30.179088 
  106900    304.32976   -277.50542    27493.097    1.0881012   -9848.8213   -11662.213    1813.3913    30.181528    30.181528    30.181528 
  106950    304.54426   -1020.6362    27478.402    1.0886831   -9872.6898   -11687.359    1814.6694     30.17615     30.17615     30.17615 
  107000    298.31108   -396.12717    27424.794    1.0908112   -9887.7439   -11665.272    1777.5281    30.156513    30.156513    30.156513 
  107050    299.50229   -47.724459     27349.16    1.0938278   -9909.5975   -11694.224    1784.6261    30.128765    30.128765    30.128765 
  107100    303.48574   -96.396764    27264.268    1.0972337   -9937.4793   -11745.841     1808.362     30.09756     30.09756     30.09756 
  107150    307.52162    -102.7845    27180.531     1.100614   -9960.2918   -11792.702    1832.4104    30.066715    30.066715    30.066715 
  107200    302.50091    442.03151    27100.725    1.1038551   -9987.6862    -11790.18    1802.4938    30.037259    30.037259    30.037259 
  107250     297.6051     769.3837    27034.224    1.1065704   -10001.514   -11774.836    1773.3214     30.01267     30.01267     30.01267 
  107300    297.05901    917.60469    26993.762    1.1082291   -10004.833     -11774.9    1770.0675     29.99769     29.99769     29.99769 
  107350    298.94086     630.1175     26989.35    1.1084103   -10007.645   -11788.926    1781.2807    29.996055    29.996055    29.996055 
  107400    301.03506    21.571689    27016.993    1.1072762   -9999.2734   -11793.033    1793.7593    30.006292    30.006292    30.006292 
  107450    301.01455     34.74761    27054.405     1.105745   -9989.5493   -11783.186    1793.6371    30.020137    30.020137    30.020137 
  107500    305.58027    266.36991     27092.51    1.1041898   -9966.9488   -11787.791    1820.8426    30.034224    30.034224    30.034224 
  107550    303.64744   -311.73033    27134.143    1.1024956   -9957.6088   -11766.934    1809.3256      30.0496      30.0496      30.0496 
  107600    300.69873   -23.399794    27167.109    1.1011577   -9963.1426   -11754.898    1791.7552    30.061765    30.061765    30.061765 
  107650    301.72617    336.04684    27193.671    1.1000822   -9971.3277   -11769.205    1797.8774    30.071559    30.071559    30.071559 
  107700    292.51503   -298.15749    27224.442    1.0988388   -10020.298   -11763.289    1742.9916    30.082897    30.082897    30.082897 
  107750    294.55113   -344.66299    27246.329    1.0979561   -10035.661   -11790.785     1755.124    30.090957    30.090957    30.090957 
  107800    294.49225   -389.89755    27255.392     1.097591   -10038.675   -11793.448    1754.7731    30.094293    30.094293    30.094293 
  107850    295.36509   -816.32943    27246.142    1.0979636   -10009.539   -11769.513     1759.974    30.090888    30.090888    30.090888 
  107900    292.39755   -125.15478    27204.585    1.0996409   -9981.0212   -11723.313    1742.2915    30.075582    30.075582    30.075582 
  107950    300.56404    655.17741     27152.47    1.1017515   -9942.1983   -11733.151    1790.9527    30.056364    30.056364    30.056364 
  108000    304.04891    205.92434     27119.55    1.1030888   -9924.5708   -11736.289    1811.7178    30.044213    30.044213    30.044213 
  108050    305.15172    275.26233     27102.52     1.103782   -9913.3966   -11731.686     1818.289    30.037922    30.037922    30.037922 
  108100    298.60218    910.48694    27100.671    1.1038573   -9932.3004   -11711.563    1779.2627    30.037239    30.037239    30.037239 
  108150     299.6121   -225.10165    27121.084    1.1030265   -9928.7212   -11714.002    1785.2804    30.044779    30.044779    30.044779 
  108200    293.80879    438.99931    27134.974    1.1024618   -9943.7293    -11694.43    1750.7006    30.049907    30.049907    30.049907 
  108250    296.65084    203.49647     27157.67    1.1015405   -9950.6879   -11718.323    1767.6354    30.058283    30.058283    30.058283 
  108300    299.49223   -760.07472    27182.731    1.1005249   -9957.6793   -11742.245    1784.5662    30.067526    30.067526    30.067526 
  108350    306.61535   -332.12419    27178.737    1.1006867   -9960.7608   -11787.771    1827.0103    30.066053    30.066053    30.066053 
  108400    292.01818   -80.602006    27159.016    1.1014859   -9979.5739   -11719.605     1740.031     30.05878     30.05878     30.05878 
  108450    298.21244    -59.46051    27134.389    1.1024856   -10017.449   -11794.389    1776.9403    30.049691    30.049691    30.049691 
  108500    294.34449    255.81105    27108.451    1.1035405   -10045.927    -11799.82    1753.8927    30.040114    30.040114    30.040114 
  108550    286.63186      1668.12    27096.401    1.1040312   -10054.898   -11762.834    1707.9359    30.035661    30.035661    30.035661 
  108600    294.71491    109.68376    27134.772      1.10247   -10040.707   -11796.807    1756.0999    30.049833    30.049833    30.049833 
  108650    294.85607   -350.50589    27187.299      1.10034   -10028.316   -11785.257    1756.9409     30.06921     30.06921     30.06921 
  108700    291.72239   -406.60996    27226.957    1.0987373   -9980.9518    -11719.22    1738.2685    30.083824    30.083824    30.083824 
  108750    299.95101   -119.79509    27247.076     1.097926    -9947.525   -11734.825    1787.2999    30.091232    30.091232    30.091232 
  108800    304.65418   -466.00958    27255.308    1.0975944   -9945.9452    -11761.27    1815.3243    30.094262    30.094262    30.094262 
  108850    305.75125   -235.12161    27247.645    1.0979031   -9947.4448   -11769.306    1821.8614    30.091441    30.091441    30.091441 
  108900    298.88661   -31.005537    27236.275    1.0983614   -9959.8657   -11740.823    1780.9575    30.087255    30.087255    30.087255 
  108950    303.56419    189.01415    27226.343    1.0987621   -9949.0573   -11757.887    1808.8295    30.083598    30.083598    30.083598 
  109000    300.32336    766.31252    27225.163    1.0988097   -9960.6665   -11750.185    1789.5186    30.083163    30.083163    30.083163 
  109050    296.13348    535.07509    27255.154    1.0976006   -9994.3944   -11758.947    1764.5526    30.094205    30.094205    30.094205 
  109100    295.38102   -612.98142    27303.979    1.0956379   -10023.813   -11783.881    1760.0689    30.112165    30.112165    30.112165 
  109150    287.43673   -274.53468    27333.314     1.094462    -10055.05   -11767.782    1712.7318    30.122945    30.122945    30.122945 
  109200    293.67243    328.30062    27346.766    1.0939236    -10059.91   -11809.798    1749.8881    30.127886    30.127886    30.127886 
  109250     297.4818   -44.555508    27365.086    1.0931912   -10028.931   -11801.518    1772.5868    30.134612    30.134612    30.134612 
  109300    292.82195   -711.78012     27381.57    1.0925331   -9985.3418   -11730.162    1744.8203    30.140662    30.140662    30.140662 
  109350    304.01018   -18.414967    27377.009    1.0927151   -9943.2185   -11754.705     1811.487    30.138988    30.138988    30.138988 
  109400    304.80599   -117.11667    27370.664    1.0929685   -9922.3675   -11738.596    1816.2289    30.136659    30.136659    30.136659 
  109450     302.3106    173.54565    27362.005    1.0933143   -9918.8244   -11720.184    1801.3598    30.133481    30.133481    30.133481 
  109500    296.20962    120.37011    27358.188    1.0934669   -9936.8979   -11701.904    1765.0063     30.13208     30.13208     30.13208 
  109550    299.62965   -237.09333    27353.835    1.0936409   -9924.7284   -11710.113     1785.385    30.130482    30.130482    30.130482 
  109600    301.61118    267.86095    27343.137    1.0940688   -9906.6292   -11703.821    1797.1922    30.126553    30.126553    30.126553 
  109650     299.4004    1458.2936    27352.579    1.0936911   -9897.2063   -11681.225     1784.019    30.130021    30.130021    30.130021 
  109700     310.6087   -9.4041505    27412.488    1.0913009    -9886.957   -11737.762    1850.8052    30.152002    30.152002    30.152002 
  109750    310.45178   -332.55961    27487.456    1.0883246   -9887.3739   -11737.244    1849.8702    30.179463    30.179463    30.179463 
  109800    295.05875   -287.15916    27554.934    1.0856594   -9954.2606   -11712.409    1758.1487    30.204139    30.204139    30.204139 
  109850    295.06911    -513.1287    27603.396    1.0837533   -9988.5171   -11746.727    1758.2104    30.221836    30.221836    30.221836 
  109900    296.96738   -628.70543    27627.629    1.0828027   -10000.978     -11770.5    1769.5215    30.230677    30.230677    30.230677 
  109950    294.01785   -207.85281    27631.371    1.0826561   -9994.2856   -11746.232    1751.9463    30.232042    30.232042    30.232042 
SHAKE stats (type/ave/delta) on step 110000
  1 0.957949 0.00196938
  1 104.403 0.0788905
  110000    299.07475   -442.67521    27619.336    1.0831279   -9962.2322   -11744.311    1782.0785    30.227652    30.227652    30.227652 
  110050    303.63712    185.01248     27587.97    1.0843593   -9941.0802   -11750.344    1809.2641    30.216205    30.216205    30.216205 
  110100    307.51607    544.40161    27560.171    1.0854531   -9917.5333   -11749.911    1832.3773    30.206052    30.206052    30.206052 
  110150    301.25235    376.80347    27553.887    1.0857006   -9931.8804   -11726.934    1795.0541    30.203756    30.203756    30.203756 
  110200    290.26189   -362.02959    27560.382    1.0854448   -9948.9484   -11678.514    1729.5659    30.206129    30.206129    30.206129 
  110250    288.46027   -308.75318    27549.426    1.0858765   -9970.4744   -11689.305    1718.8307    30.202126    30.202126    30.202126 
  110300    288.10092   -374.51165    27516.828    1.0871628   -10002.616   -11719.305    1716.6895    30.190209    30.190209    30.190209 
  110350    294.79698   -189.93157    27458.723    1.0894634   -10042.535   -11799.124    1756.5889    30.168944    30.168944    30.168944 
  110400    294.68689   -144.26658    27384.364    1.0924217   -10062.292   -11818.225    1755.9329    30.141687    30.141687    30.141687 
  110450    293.16376    376.30133    27302.955    1.0956789   -10063.248   -11810.105    1746.8571    30.111788    30.111788    30.111788 
  110500    289.97702    1222.1469    27233.672    1.0984664   -10039.212    -11767.08    1727.8685    30.086297    30.086297    30.086297 
  110550     298.4899    879.64224    27205.674    1.0995968   -10006.453   -11785.047    1778.5937    30.075983    30.075983    30.075983 
  110600    299.86187    483.60086    27215.071    1.0992171   -9964.7768   -11751.546    1786.7687    30.079445    30.079445    30.079445 
  110650    298.71189    382.10499    27246.463    1.0979507   -9955.5305   -11735.447    1779.9164    30.091006    30.091006    30.091006 
  110700    300.11143    117.45007    27293.457    1.0960602   -9945.5307   -11733.786    1788.2557    30.108297    30.108297    30.108297 
  110750    298.31857   -99.911343     27347.11    1.0939099   -9948.2435   -11725.816    1777.5727    30.128012    30.128012    30.128012 
  110800    299.37277   -108.10486    27395.651    1.0919716   -9952.7716   -11736.626    1783.8543    30.145828    30.145828    30.145828 
  110850    295.91982    384.42405    27444.613    1.0900235   -9974.3544   -11737.634    1763.2795    30.163776    30.163776    30.163776 
  110900    303.42102   -121.01246    27505.464     1.087612   -9979.7482   -11787.725    1807.9764    30.186053    30.186053    30.186053 
  110950    305.81933   -843.35386    27561.647     1.085395   -9971.5704   -11793.837    1822.2671    30.206592    30.206592    30.206592 
  111000    291.84893   -215.14186    27588.229    1.0843492   -10004.979   -11744.002    1739.0225    30.216299    30.216299    30.216299 
  111050    290.55633    -503.9759    27593.352    1.0841478   -10046.452   -11777.773    1731.3204     30.21817     30.21817     30.21817 
  111100    293.63181    -489.9854    27568.349    1.0851311   -10061.063   -11810.709     1749.646     30.20904     30.20904     30.20904 
  111150    297.25502     176.4264    27519.151    1.0870711   -10062.175   -11833.411    1771.2355    30.191059    30.191059    30.191059 
  111200    301.00927    347.94233    27472.123     1.088932   -10062.638   -11856.244    1793.6057    30.173851    30.173851    30.173851 
  111250    298.66438     328.7817    27441.319    1.0901543   -10059.259   -11838.892    1779.6333    30.162569    30.162569    30.162569 
  111300    298.12497    117.31437    27421.094    1.0909584   -10054.622   -11831.041    1776.4191    30.155157    30.155157    30.155157 
  111350    293.40729   -261.23904    27403.638    1.0916533   -10030.499   -11778.807    1748.3082    30.148757    30.148757    30.148757 
  111400    297.62162    479.50246    27377.548    1.0926936   -9979.5611   -11752.981    1773.4199    30.139186    30.139186    30.139186 
  111450    308.79421    275.64963    27365.303    1.0931826   -9932.6591   -11772.652    1839.9933    30.134692    30.134692    30.134692 
  111500     307.6742    399.81371    27368.496    1.0930551   -9927.2873   -11760.607    1833.3195    30.135864    30.135864    30.135864 
  111550    299.08903   -124.30251    27390.985    1.0921576   -9936.6758   -11718.839    1782.1636    30.144116    30.144116    30.144116 
  111600    301.34724   -489.66551     27409.82    1.0914071   -9939.2464   -11734.866    1795.6195    30.151024    30.151024    30.151024 
  111650    301.63938    283.11527    27413.112     1.091276   -9955.7929   -11753.153    1797.3603    30.152231    30.152231    30.152231 
  111700    305.40121   -2.1466129    27421.997    1.0909225   -9967.1264   -11786.902    1819.7757    30.155488    30.155488    30.155488 
  111750    301.61351    -58.13558    27435.597    1.0903817   -9989.0713   -11786.277    1797.2061    30.160472    30.160472    30.160472 
  111800    298.66728    366.56253    27453.944     1.089653   -10029.248   -11808.898    1779.6506    30.167194    30.167194    30.167194 
  111850    294.26808   -966.33697     27479.53    1.0886385   -10061.537   -11814.974    1753.4374    30.176562    30.176562    30.176562 
  111900     296.6266   -841.51801    27468.207    1.0890872   -10064.288   -11831.778    1767.4909    30.172417    30.172417    30.172417 
  111950    297.86751   -276.52574    27419.546      1.09102   -10034.077   -11808.962     1774.885     30.15459     30.15459     30.15459 
  112000    301.60913    116.61351    27360.016    1.0933938   -10008.079   -11805.259      1797.18    30.132751    30.132751    30.132751 
  112050    304.11588    356.93344    27309.658      1.09541   -9986.9233    -11799.04    1812.1168    30.114253    30.114253    30.114253 
  112100    306.57384   -366.24053    27274.632    1.0968168     -9981.61   -11808.373    1826.7629    30.101373    30.101373    30.101373 
  112150    300.76889   -7.9445799     27234.87     1.098418   -9981.8057   -11773.979    1792.1733    30.086738    30.086738    30.086738 
  112200     299.4913    743.62781    27195.716    1.0999994    -9985.132   -11769.693    1784.5607    30.072313    30.072313    30.072313 
  112250    301.64074    821.53877    27181.942    1.1005569   -9987.2991   -11784.667    1797.3684    30.067235    30.067235    30.067235 
  112300    299.81667    243.24911    27198.838    1.0998732   -9993.5911    -11780.09    1786.4994    30.073464    30.073464    30.073464 
  112350    296.52561    188.52369     27230.81    1.0985818   -9999.8267   -11766.716    1766.8891    30.085243    30.085243    30.085243 
  112400     296.0249     478.8789    27269.746    1.0970133   -9988.2989   -11752.205    1763.9056    30.099575    30.099575    30.099575 
  112450    297.19029   -145.60403    27323.101    1.0948711   -9989.0611   -11759.911    1770.8497    30.119193    30.119193    30.119193 
  112500    292.66949   -490.68819     27370.38    1.0929798   -9935.3048   -11679.217    1743.9119    30.136555    30.136555    30.136555 
  112550    308.24733   -879.89334    27394.263    1.0920269   -9905.3044   -11742.039    1836.7347    30.145318    30.145318    30.145318 
  112600    303.75937   -156.62576     27387.85    1.0922826   -9891.5933   -11701.586    1809.9925    30.142966    30.142966    30.142966 
  112650    307.36906    318.57541    27373.322    1.0928624    -9894.441   -11725.942    1831.5013    30.137635    30.137635    30.137635 
  112700    297.54225    235.69088    27370.495    1.0929752   -9915.5704   -11688.517    1772.9469    30.136597    30.136597    30.136597 
  112750    297.50555    91.106597    27371.144    1.0929493   -9953.7763   -11726.505    1772.7282    30.136836    30.136836    30.136836 
  112800    294.59952    12.163532    27366.602    1.0931307   -9982.3676    -11737.78    1755.4123    30.135169    30.135169    30.135169 
  112850    297.29773   -266.67019    27351.672    1.0937274   -9985.8902    -11757.38    1771.4899    30.129688    30.129688    30.129688 
  112900     304.9702    396.29466    27322.421    1.0948983   -9986.7527    -11803.96    1817.2074    30.118943    30.118943    30.118943 
  112950    300.27318    880.16467    27313.281    1.0952647   -9989.9943   -11779.214    1789.2195    30.115584    30.115584    30.115584 
  113000    292.65741    640.05652    27346.709    1.0939259   -9991.7503    -11735.59      1743.84    30.127865    30.127865    30.127865 
  113050    294.66599    54.007156    27403.203    1.0916707   -9978.0591   -11733.867    1755.8083    30.148597    30.148597    30.148597 
  113100    297.36555    -511.7681     27457.25    1.0895218   -9970.7914   -11742.685    1771.8941    30.168405    30.168405    30.168405 
  113150    295.90136   -549.09043    27489.403    1.0882474   -9944.9474   -11708.117    1763.1695    30.180176    30.180176    30.180176 
  113200    299.50285   -959.91692    27495.723    1.0879973   -9928.3687   -11712.998    1784.6295    30.182489    30.182489    30.182489 
  113250    302.15618   -602.62954    27468.088    1.0890919   -9903.6367   -11704.076    1800.4397    30.172373    30.172373    30.172373 
  113300    300.15417   -306.44256    27413.588    1.0912571   -9896.1341   -11684.645    1788.5104    30.152405    30.152405    30.152405 
  113350    300.68616    475.96228    27343.085    1.0940709   -9875.5635   -11667.244    1791.6803    30.126534    30.126534    30.126534 
  113400    303.01999    621.46041    27284.952    1.0964019   -9883.0112   -11688.598    1805.5868    30.105169    30.105169    30.105169 
  113450    302.46835    1088.2779    27248.489    1.0978691    -9894.968   -11697.268    1802.2998    30.091752    30.091752    30.091752 
  113500    310.41699    396.91234    27248.067    1.0978861   -9929.7125   -11779.375    1849.6629    30.091597    30.091597    30.091597 
  113550    299.76569    870.67057    27281.322    1.0965478   -9923.4664   -11709.662    1786.1956    30.103834    30.103834    30.103834 
  113600    298.77355   -178.37218    27346.328    1.0939411    -9955.025   -11735.309    1780.2838    30.127725    30.127725    30.127725 
  113650    304.82034   -812.20407    27398.946    1.0918403   -9975.3572   -11791.672    1816.3144    30.147036    30.147036    30.147036 
  113700    294.18761   -843.60824    27422.296    1.0909106   -9999.3444   -11752.302    1752.9578    30.155598    30.155598    30.155598 
  113750     294.3238   -317.66014    27415.521    1.0911802   -9993.9543   -11747.724    1753.7693    30.153114    30.153114    30.153114 
  113800    300.42813    280.97957    27396.417    1.0919411   -9987.1811   -11777.324    1790.1428    30.146108    30.146108    30.146108 
  113850    295.25408    196.43751    27387.663    1.0922901   -9980.8787   -11740.191    1759.3125    30.142897    30.142897    30.142897 
  113900    303.34132    249.25888    27389.272    1.0922259   -9933.5046   -11741.006    1807.5015    30.143487    30.143487    30.143487 
  113950    311.25611   -270.99984    27403.514    1.0916583   -9882.7557   -11737.419    1854.6629    30.148711    30.148711    30.148711 
  114000    308.50673   -227.20232    27412.357    1.0913061    -9886.351   -11724.631    1838.2803    30.151954    30.151954    30.151954 
  114050    306.41804    210.15853    27413.315     1.091268   -9897.9891   -11723.824    1825.8346    30.152305    30.152305    30.152305 
  114100    296.77455   -40.670474    27419.973     1.091003    -9915.726   -11684.098    1768.3725    30.154746    30.154746    30.154746 
  114150    297.78287   -606.31628    27416.095    1.0911573   -9932.4573   -11706.838    1774.3807    30.153324    30.153324    30.153324 
  114200    300.19071    141.59087    27387.809    1.0922843    -9939.665   -11728.393    1788.7282    30.142951    30.142951    30.142951 
  114250    299.45027    376.07024    27366.286    1.0931433   -9948.7117   -11733.028    1784.3161    30.135053    30.135053    30.135053 
  114300    297.34923    1021.9142    27363.275    1.0932636   -9946.8745   -11718.671    1771.7968    30.133947    30.133947    30.133947 
  114350    294.26103    267.05621    27390.907    1.0921607   -9989.0078   -11742.403    1753.3953    30.144087    30.144087    30.144087 
  114400    292.31825   -308.29742    27430.662    1.0905779   -10030.264   -11772.083     1741.819    30.158664    30.158664    30.158664 
  114450    289.24567   -892.56394    27456.752    1.0895416   -10034.418   -11757.928    1723.5106    30.168222    30.168222    30.168222 
  114500    289.90146   -259.68966    27443.999    1.0900479   -10018.576   -11745.995    1727.4182    30.163551    30.163551    30.163551 
  114550    302.07742    -43.13901    27406.321    1.0915465   -9982.1831   -11782.153    1799.9704    30.149741    30.149741    30.149741 
  114600     299.3869    354.80227    27362.063     1.093312   -9930.9674   -11714.906    1783.9386    30.133502    30.133502    30.133502 
  114650    299.72159    798.84447    27335.261     1.094384   -9928.9402   -11714.873    1785.9328     30.12366     30.12366     30.12366 
  114700    298.13214    434.05831     27346.03     1.093953   -9922.9712   -11699.433    1776.4619    30.127616    30.127616    30.127616 
  114750    298.32839    234.56906    27381.402    1.0925399   -9919.6709   -11697.302    1777.6312      30.1406      30.1406      30.1406 
  114800    302.44501   -660.62832    27420.993    1.0909624   -9892.3104   -11694.471    1802.1607     30.15512     30.15512     30.15512 
  114850    297.82123   -455.04629    27437.063    1.0903235   -9868.3163   -11642.926    1774.6093    30.161009    30.161009    30.161009 
  114900    298.84324   -440.33181    27425.524    1.0907822   -9847.3748   -11628.074    1780.6991    30.156781    30.156781    30.156781 
  114950    305.07505   -392.59546    27382.085    1.0925126   -9821.0122   -11638.844    1817.8322    30.140851    30.140851    30.140851 
  115000    302.37548    190.39642    27317.922    1.0950786   -9816.2374   -11617.984    1801.7464     30.11729     30.11729     30.11729 
  115050    295.84228    959.59865    27260.157    1.0973991   -9811.3023    -11574.12    1762.8174    30.096047    30.096047    30.096047 
  115100    301.26358    1058.9823    27229.446    1.0986369   -9825.1608   -11620.282     1795.121     30.08474     30.08474     30.08474 
  115150    297.09879    473.15137    27234.467    1.0984343   -9895.8731   -11666.178    1770.3045     30.08659     30.08659     30.08659 
  115200    293.63759    450.09727    27263.673    1.0972576   -9924.9072   -11674.588    1749.6805     30.09734     30.09734     30.09734 
  115250    292.99095    236.20684    27310.009     1.095396   -9948.1324    -11693.96    1745.8274    30.114381    30.114381    30.114381 
  115300    292.18229   -24.839408    27368.106    1.0930706   -9941.2819   -11682.291    1741.0089    30.135721    30.135721    30.135721 
  115350    302.52047   -764.49537    27427.605    1.0906994   -9917.4176   -11720.028    1802.6104    30.157544    30.157544    30.157544 
  115400     303.1621   -158.25753    27464.883     1.089219   -9871.6936   -11678.127    1806.4336      30.1712      30.1712      30.1712 
  115450    305.58233    718.62754    27496.648    1.0879607   -9866.0566   -11686.911    1820.8549    30.182827    30.182827    30.182827 
  115500    303.71055    267.37608    27553.486    1.0857164   -9872.0106   -11681.712    1809.7016     30.20361     30.20361     30.20361 
  115550    302.04833   -449.52073    27624.623    1.0829206   -9880.3546   -11680.152     1799.797     30.22958     30.22958     30.22958 
  115600    297.47749   -552.35304    27682.393    1.0806606   -9921.1353   -11693.696    1772.5611    30.250638    30.250638    30.250638 
  115650    300.00335   -1027.3195    27717.248    1.0793017   -9960.2498   -11747.862    1787.6117    30.263329    30.263329    30.263329 
  115700    299.81868    -1081.113    27709.029    1.0796218   -9994.4331   -11780.944    1786.5114    30.260338    30.260338    30.260338 
  115750    292.62074   -124.28553    27661.591    1.0814733   -10003.119   -11746.741    1743.6214    30.243059    30.243059    30.243059 
  115800    297.75519   -23.605108    27603.213    1.0837605   -10004.134    -11778.35    1774.2158    30.221769    30.221769    30.221769 
  115850    298.00234     368.5944    27542.902    1.0861337    -9978.286   -11753.974    1775.6884    30.199742    30.199742    30.199742 
  115900    299.72092   -37.458085    27489.837    1.0882303    -9968.754   -11754.683    1785.9288    30.180335    30.180335    30.180335 
  115950    294.87931   -157.01371    27430.578    1.0905812   -9961.7312   -11718.811    1757.0795    30.158633    30.158633    30.158633 
  116000    296.96195    39.335626    27362.139     1.093309   -9935.2213    -11704.71    1769.4891     30.13353     30.13353     30.13353 
  116050    303.97945    513.49639    27298.636    1.0958523   -9917.3563    -11728.66    1811.3039    30.110201    30.110201    30.110201 
  116100    306.74919     45.54201    27254.915    1.0976102   -9918.4295   -11746.237    1827.8078    30.094117    30.094117    30.094117 
  116150    296.98343    542.47426    27220.385    1.0990026   -9915.5402   -11685.157    1769.6171    30.081403    30.081403    30.081403 
  116200    300.06426    837.43501    27206.888    1.0995478   -9910.2444   -11698.219    1787.9747     30.07643     30.07643     30.07643 
  116250    304.92935    -314.2351    27219.156    1.0990522   -9951.3868   -11768.351     1816.964     30.08095     30.08095     30.08095 
  116300      292.616    109.99969    27233.005    1.0984933   -9999.2726   -11742.866    1743.5932    30.086051    30.086051    30.086051 
  116350    292.44945    302.20675     27257.77    1.0974952   -10030.321   -11772.922    1742.6008    30.095168    30.095168    30.095168 
  116400    295.91133    39.032502    27295.835    1.0959647   -10025.042   -11788.271    1763.2289    30.109171    30.109171    30.109171 
  116450    287.81842   -62.244489    27341.347    1.0941404   -10026.331   -11741.337    1715.0062    30.125896    30.125896    30.125896 
  116500    301.11005   -345.30273    27382.612    1.0924916   -9999.8418   -11794.048    1794.2062    30.141044    30.141044    30.141044 
  116550    295.22028   -19.222324    27413.471    1.0912618   -9968.6843   -11727.795    1759.1112    30.152362    30.152362    30.152362 
  116600    291.04887    -110.8345    27434.094    1.0904415   -9939.6358   -11673.891    1734.2552    30.159921    30.159921    30.159921 
  116650    300.38139   -495.51429    27437.656    1.0902999   -9927.4421   -11717.306    1789.8644    30.161227    30.161227    30.161227 
  116700    298.89866   -322.00587    27418.517    1.0910609   -9914.8484   -11695.878    1781.0293    30.154212    30.154212    30.154212 
  116750    298.35756   -892.05644     27376.26     1.092745   -9893.0329   -11670.838    1777.8051    30.138713    30.138713    30.138713 
  116800    295.59033   -336.46488    27286.801    1.0963276   -9883.4967   -11644.813    1761.3161    30.105849    30.105849    30.105849 
  116850    306.46424    843.31915    27170.601    1.1010162   -9863.3978   -11689.508    1826.1098    30.063053    30.063053    30.063053 
  116900    300.01622    1221.8727    27083.565    1.1045545   -9856.2895   -11643.978    1787.6884    30.030918    30.030918    30.030918 
  116950    311.51382    347.71156    27037.925    1.1064189   -9867.7681   -11723.967    1856.1985     30.01404     30.01404     30.01404 
  117000    298.87754    713.25114    27015.307    1.1073453   -9915.8697   -11696.773    1780.9035    30.005668    30.005668    30.005668 
  117050    293.46445    492.06777    27023.194    1.1070221   -9956.1488   -11704.798    1748.6488    30.008588    30.008588    30.008588 
  117100    299.97259   -784.38818    27048.074    1.1060038   -9962.4484   -11749.877    1787.4285    30.017795    30.017795    30.017795 
  117150    292.46444   -580.77357     27047.83    1.1060138   -9971.6809   -11714.371    1742.6901    30.017704    30.017704    30.017704 
  117200    298.98886    603.80403    27020.946    1.1071142   -9967.0187   -11748.585    1781.5668    30.007756    30.007756    30.007756 
  117250    299.17894    527.34833    27009.402    1.1075874   -9938.4576   -11721.157    1782.6994    30.003482    30.003482    30.003482 
  117300    306.55261   -7.8460403    27021.062    1.1071094    -9913.912   -11740.548    1826.6364    30.007799    30.007799    30.007799 
  117350    301.17469    37.093046    27045.426    1.1061121   -9888.2391    -11682.83    1794.5913    30.016815    30.016815    30.016815 
  117400    303.99817    -224.9223    27074.107    1.1049403   -9876.4588   -11687.874    1811.4155    30.027422    30.027422    30.027422 
  117450    302.16645   -766.75329    27090.456    1.1042735   -9851.2118   -11651.713    1800.5009    30.033465    30.033465    30.033465 
  117500    305.39801    136.60136    27077.517    1.1048012   -9806.5334    -11626.29    1819.7566    30.028683    30.028683    30.028683 
  117550    304.10578    1185.6359    27063.335    1.1053801   -9767.0239   -11579.081    1812.0567    30.023439    30.023439    30.023439 
  117600     306.8001    1292.5912    27087.052    1.1044123   -9768.2173   -11596.328    1828.1111    30.032207    30.032207    30.032207 
  117650    311.17259    787.05822    27163.708    1.1012956   -9819.8079   -11673.973    1854.1652     30.06051     30.06051     30.06051 
  117700    301.28476    325.96385    27283.077    1.0964772   -9873.8349   -11669.082    1795.2472    30.104479    30.104479    30.104479 
  117750    300.96288    144.14149    27421.319    1.0909495   -9887.1706     -11680.5    1793.3292    30.155239    30.155239    30.155239 
  117800    299.58126   -417.67798    27559.829    1.0854665   -9919.7711   -11704.868    1785.0967    30.205927    30.205927    30.205927 
  117850    303.06601   -1056.6398    27678.571    1.0808099   -9928.1735   -11734.034     1805.861    30.249246    30.249246    30.249246 
  117900    296.02186   -1446.0835    27751.541     1.077968   -9933.3842   -11697.272    1763.8875    30.275805    30.275805    30.275805 
  117950    301.59283     -1352.62    27761.934    1.0775645   -9925.9691   -11723.052    1797.0829    30.279584    30.279584    30.279584 
  118000    301.91206   -613.20549    27718.629    1.0792479   -9892.7911   -11691.776     1798.985    30.263832    30.263832    30.263832 
  118050    302.55829    71.103562    27649.465    1.0819476   -9880.3878   -11683.223    1802.8357    30.238639    30.238639    30.238639 
  118100     306.6347    41.206467    27578.342    1.0847379   -9879.0194   -11706.145    1827.1256    30.212689    30.212689    30.212689 
  118150    293.00694    530.26356    27514.854    1.0872408   -9885.7977    -11631.72    1745.9227    30.189487    30.189487    30.189487 
  118200     292.3952    523.53972    27470.428    1.0889991   -9904.7721    -11647.05    1742.2775    30.173231    30.173231    30.173231 
  118250    302.88702    6.9715632     27446.66    1.0899422    -9910.943   -11715.738    1804.7945    30.164526    30.164526    30.164526 
  118300    293.11759    74.586833     27429.01    1.0906436   -9916.0285    -11662.61     1746.582    30.158058    30.158058    30.158058 
  118350    297.73033    168.73623    27414.431    1.0912235    -9931.723   -11705.791    1774.0676    30.152714    30.152714    30.152714 
  118400    289.53722    -46.75083    27402.194    1.0917108   -9959.3205   -11684.568    1725.2478    30.148227    30.148227    30.148227 
  118450    297.62365    162.17612    27384.846    1.0924025   -9965.0246   -11738.457     1773.432    30.141864    30.141864    30.141864 
  118500     302.1895    -554.3402    27369.026    1.0930339    -9961.566   -11762.204    1800.6382    30.136058    30.136058    30.136058 
  118550    297.90157    101.29483    27335.695    1.0943667   -9988.1839   -11763.272     1775.088     30.12382     30.12382     30.12382 
  118600    295.94115    371.35503      27309.6    1.0954124   -9972.2584   -11735.665    1763.4065    30.114231    30.114231    30.114231 
  118650     296.8728    623.21931    27300.141    1.0957919   -9978.5826   -11747.541     1768.958    30.110754    30.110754    30.110754 
  118700     301.3737    3.9639917    27306.231    1.0955475    -9966.867   -11762.644    1795.7772    30.112993    30.112993    30.112993 
  118750    306.23155   -397.10615    27312.217    1.0953074   -9953.8424   -11778.566    1824.7234    30.115193    30.115193    30.115193 
  118800    304.84832    111.70534    27311.737    1.0953266   -9942.2345   -11758.716    1816.4812    30.115017    30.115017    30.115017 
  118850    296.02236     585.3337    27324.412    1.0948185   -9926.4218   -11690.312    1763.8905    30.119675    30.119675    30.119675 
  118900    311.22645    637.00851    27359.897    1.0933986   -9888.0119   -11742.498    1854.4861    30.132707    30.132707    30.132707 
  118950     306.0937     668.1948    27429.995    1.0906044   -9872.0357   -11695.938    1823.9019     30.15842     30.15842     30.15842 
  119000    310.55123   -923.13881    27522.853    1.0869248   -9875.8949   -11726.358    1850.4627    30.192413    30.192413    30.192413 
  119050    301.98103   -1341.5842    27587.243    1.0843879   -9907.8601   -11707.256     1799.396    30.215939    30.215939    30.215939 
  119100    292.33864   -298.86711    27600.517    1.0838664   -9936.8555   -11678.796    1741.9405    30.220785    30.220785    30.220785 
  119150    300.05293   -842.91041     27583.16    1.0845484   -9951.3985   -11739.306    1787.9072    30.214448    30.214448    30.214448 
  119200    297.48203   -660.42257    27537.866    1.0863323   -10004.748   -11777.336    1772.5881    30.197901    30.197901    30.197901 
  119250    290.44438   -582.48903    27470.046    1.0890143   -10035.937    -11766.59    1730.6533     30.17309     30.17309     30.17309 
  119300    292.68418    23.161924    27377.738    1.0926861   -10015.258   -11759.258    1743.9994    30.139255    30.139255    30.139255 
  119350    295.76297    100.38317    27282.025    1.0965195   -10004.579   -11766.924    1762.3449    30.104092    30.104092    30.104092 
  119400    286.39425    873.80126    27196.797    1.0999558   -9979.2047   -11685.725      1706.52    30.072711    30.072711    30.072711 
  119450    304.41551    257.16206    27132.125    1.1025776   -9951.5929   -11765.495    1813.9022    30.048855    30.048855    30.048855 
  119500    306.24905    144.14301     27080.93     1.104662   -9952.3188   -11777.146    1824.8276    30.029944    30.029944    30.029944 
  119550    301.42983    866.69585     27042.84    1.1062179   -9936.9754   -11733.087    1796.1116    30.015858    30.015858    30.015858 
  119600    293.64509    1016.4529    27039.154    1.1063687   -9954.5287   -11704.254    1749.7252    30.014495    30.014495    30.014495 
  119650    297.74779    338.37428    27068.132    1.1051842   -9965.9869   -11740.159    1774.1717    30.025213    30.025213    30.025213 
  119700    298.41755    410.19147    27112.317    1.1033831   -9984.4212   -11762.584    1778.1626    30.041541    30.041541    30.041541 
  119750    297.50378   -152.47288    27170.962    1.1010016   -10010.601   -11783.319    1772.7177    30.063186    30.063186    30.063186 
  119800    298.10662   -642.83092    27222.968    1.0988983    -10050.96    -11827.27    1776.3098    30.082355    30.082355    30.082355 
  119850      294.462   -420.58674    27259.263    1.0974351   -10078.173   -11832.765    1754.5928    30.095717    30.095717    30.095717 
  119900    296.46924    54.447884    27285.064    1.0963974   -10067.929   -11834.482    1766.5533     30.10521     30.10521     30.10521 
  119950    290.72859   -167.16139    27314.479    1.0952167   -10053.412   -11785.759    1732.3468    30.116024    30.116024    30.116024 
SHAKE stats (type/ave/delta) on step 120000
  1 0.957955 0.0019044
  1 104.404 0.0754207
  120000    295.58175    109.83511    27340.779    1.0941631   -10015.878   -11777.143     1761.265    30.125687    30.125687    30.125687 
  120050     301.2265   -70.350056    27365.627    1.0931696   -9983.8952   -11778.795    1794.9001    30.134811    30.134811    30.134811 
  120100    304.60095    86.033895     27391.29    1.0921455   -9978.8074   -11793.815    1815.0072    30.144228    30.144228    30.144228 
  120150    296.97194   -414.71869    27424.821    1.0908101   -9966.3235   -11735.872    1769.5487    30.156523    30.156523    30.156523 
  120200    301.85857   -975.79843    27440.477    1.0901878    -9970.513   -11769.179    1798.6663     30.16226     30.16226     30.16226 
  120250    297.15085   -146.59926    27420.872    1.0909672   -9949.1338   -11719.749    1770.6147    30.155075    30.155075    30.155075 
  120300    304.82797    567.31127    27395.729    1.0919685   -9943.2822   -11759.642    1816.3599    30.145856    30.145856    30.145856 
  120350    304.16099    89.704629    27394.223    1.0920285   -9938.6205   -11751.006    1812.3856    30.145304    30.145304    30.145304 
  120400    293.38592   -119.40212    27399.633    1.0918129   -9959.1402   -11707.321    1748.1809    30.147288    30.147288    30.147288 
  120450    299.99725   -429.15873    27390.289    1.0921854   -9964.1381   -11751.713    1787.5754     30.14386     30.14386     30.14386 
  120500    293.77091    -81.31265    27361.011    1.0933541   -9995.0356    -11745.51    1750.4749    30.133116    30.133116    30.133116 
  120550     296.2073      197.386    27328.487    1.0946553    -10008.72   -11773.713    1764.9925    30.121172    30.121172    30.121172 
  120600    302.64911    487.60852    27307.744    1.0954868   -10017.765   -11821.142    1803.3769    30.113549    30.113549    30.113549 
  120650    292.56607   -190.53883    27306.433    1.0955394   -10046.129   -11789.425    1743.2957    30.113067    30.113067    30.113067 
  120700    285.53627   -555.22561    27301.748    1.0957274   -10050.003   -11751.411    1701.4076    30.111345    30.111345    30.111345 
  120750    292.26809    114.65004    27273.437    1.0968648   -9997.8378   -11739.358    1741.5201    30.100933    30.100933    30.100933 
  120800    299.18046    479.55677    27244.017    1.0980493   -9959.0419    -11741.75    1782.7085    30.090106    30.090106    30.090106 
  120850    303.32224    155.19656    27231.113    1.0985696   -9926.2285   -11733.616    1807.3878    30.085354    30.085354    30.085354 
  120900    300.11373    60.417764    27227.008    1.0987352   -9932.0155   -11720.285    1788.2695    30.083842    30.083842    30.083842 
  120950    291.92173    602.54162    27230.895    1.0985784   -9928.7595   -11668.216    1739.4563    30.085274    30.085274    30.085274 
  121000    300.66197   -107.56075    27251.322    1.0977549   -9904.8294   -11696.366    1791.5362    30.092795    30.092795    30.092795 
  121050    297.67025    130.24322    27267.537    1.0971021   -9914.3338   -11688.043    1773.7096    30.098762    30.098762    30.098762 
  121100    298.56245   -118.46177    27281.717    1.0965319   -9891.3141    -11670.34    1779.0259    30.103979    30.103979    30.103979 
  121150    307.70399    52.141446    27289.638    1.0962136   -9865.2681   -11698.765    1833.4971    30.106892    30.106892    30.106892 
  121200    302.91451    227.05737    27301.458     1.095739   -9872.7243   -11677.683    1804.9583    30.111238    30.111238    30.111238 
  121250    301.07496    339.23075    27318.387      1.09506    -9861.404   -11655.401    1793.9971     30.11746     30.11746     30.11746 
  121300    305.64348    418.30167    27339.418    1.0942176   -9857.3637   -11678.583    1821.2193    30.125187    30.125187    30.125187 
  121350    304.07119     521.3725    27372.032    1.0929138   -9888.5574   -11700.408    1811.8506    30.137162    30.137162    30.137162 
  121400      304.153    -182.1098    27414.772      1.09121   -9930.9344   -11743.272     1812.338    30.152839    30.152839    30.152839 
  121450    298.42763   -289.78773     27448.34    1.0898755    -9973.665   -11751.888    1778.2226    30.165141    30.165141    30.165141 
  121500    306.17056   -247.77374     27468.06     1.089093    -9994.412   -11818.772    1824.3599    30.172363    30.172363    30.172363 
  121550    294.67586    -203.7903    27482.314    1.0885281   -10003.194   -11759.061    1755.8671    30.177582    30.177582    30.177582 
  121600    293.47379   -377.33356    27484.195    1.0884537   -10014.543   -11763.248    1748.7045     30.17827     30.17827     30.17827 
  121650    292.85752   -137.27566    27469.825     1.089023   -9977.1843   -11722.217    1745.0323     30.17301     30.17301     30.17301 
  121700    301.13077   -2.5270433    27448.599    1.0898652   -9959.9884   -11754.318    1794.3296    30.165236    30.165236    30.165236 
  121750     298.1168    60.606434    27430.222    1.0905954   -9926.0918   -11702.462    1776.3705    30.158502    30.158502    30.158502 
  121800    299.75736     218.9127    27417.557    1.0910991   -9902.2857   -11688.432     1786.146     30.15386     30.15386     30.15386 
  121850    307.20702    158.24787    27409.077    1.0914367    -9887.367   -11717.903    1830.5358    30.150751    30.150751    30.150751 
  121900    301.62333   -356.95096    27404.066    1.0916363   -9892.6274   -11689.892    1797.2647    30.148914    30.148914    30.148914 
  121950    299.52634   -124.07714    27390.225    1.0921879   -9905.6114   -11690.381    1784.7694    30.143837    30.143837    30.143837 
  122000    305.76503    203.45756    27371.827     1.092922   -9925.6687   -11747.612    1821.9435    30.137086    30.137086    30.137086 
  122050     305.5804    248.13692    27364.201    1.0932266   -9928.1893   -11749.033    1820.8434    30.134287    30.134287    30.134287 
  122100     298.1708   -6.7034493    27374.305    1.0928231   -9949.5962   -11726.288    1776.6922    30.137996    30.137996    30.137996 
  122150    293.91246   -99.944032    27387.701    1.0922886   -9967.0444   -11718.363    1751.3183    30.142911    30.142911    30.142911 
  122200    300.84331   -723.57864    27395.836    1.0919642   -9975.9165   -11768.533    1792.6168    30.145895    30.145895    30.145895 
  122250      299.726   -307.36536    27380.936    1.0925584   -9964.7047   -11750.664    1785.9591    30.140429    30.140429    30.140429 
  122300    302.84385   -881.43171     27342.15    1.0941083   -9943.4412   -11747.978    1804.5373    30.126191    30.126191    30.126191 
  122350    293.17054   -42.509916    27275.695     1.096774    -9940.576   -11687.474    1746.8975    30.101764    30.101764    30.101764 
  122400    295.36966    413.36179    27207.963    1.0995043   -9905.5751   -11665.576    1760.0013    30.076826    30.076826    30.076826 
  122450    300.03698    568.61529    27158.905    1.1014904   -9871.2288   -11659.041    1787.8121    30.058739    30.058739    30.058739 
  122500    302.85256    534.80937    27136.828    1.1023865   -9844.3951   -11648.984    1804.5892    30.050592    30.050592    30.050592 
  122550    308.60495    301.22079    27138.353    1.1023246   -9821.0879   -11659.954    1838.8656    30.051154    30.051154    30.051154 
  122600     302.5072    76.053334    27157.942    1.1015295   -9827.4692   -11630.001    1802.5313    30.058383    30.058383    30.058383 
  122650    314.32108   -279.83852    27177.478    1.1007376   -9839.6358   -11712.562     1872.926    30.065589    30.065589    30.065589 
  122700    310.46308    355.54458     27194.08    1.1000656   -9872.7817   -11722.719    1849.9375     30.07171     30.07171     30.07171 
  122750    306.83312   -292.70196    27220.288    1.0990065   -9934.9593   -11763.267    1828.3079    30.081367    30.081367    30.081367 
  122800    304.09493   -167.33004     27237.23    1.0983229   -9963.2765   -11775.269     1811.992    30.087607    30.087607    30.087607 
  122850    300.98048   -572.48677    27241.993    1.0981308   -9987.5889   -11781.023    1793.4341    30.089361    30.089361    30.089361 
  122900    289.21921    145.81542    27232.766    1.0985029   -10004.193   -11727.546     1723.353    30.085963    30.085963    30.085963 
  122950    293.16823    293.68766    27229.665     1.098628   -9990.4227   -11737.306    1746.8838    30.084821    30.084821    30.084821 
  123000    298.27726    256.30325    27235.746    1.0983827    -9961.436   -11738.763    1777.3266     30.08706     30.08706     30.08706 
  123050     302.2509    236.95467     27246.83    1.0979359    -9924.866    -11725.87    1801.0041    30.091141    30.091141    30.091141 
  123100    305.68571    102.41417    27264.846    1.0972104   -9911.4541   -11732.925    1821.4709    30.097772    30.097772    30.097772 
  123150    305.07077   -120.02098    27289.528     1.096218   -9928.9607   -11746.767    1817.8067    30.106851    30.106851    30.106851 
  123200    297.89202   -117.93996    27312.199    1.0953081   -9944.3134   -11719.345    1775.0311    30.115187    30.115187    30.115187 
  123250    295.76566   -420.62506    27324.848    1.0948011   -9968.4988    -11730.86    1762.3609    30.119835    30.119835    30.119835 
  123300    291.71606   -678.45732    27319.102    1.0950313   -9984.5773   -11722.808    1738.2308    30.117723    30.117723    30.117723 
  123350    298.20233   -487.35364    27284.785    1.0964086   -9988.1244   -11765.004    1776.8801    30.105107    30.105107    30.105107 
  123400    302.76615   -360.02197     27232.68    1.0985064   -9961.9406   -11766.015    1804.0743    30.085931    30.085931    30.085931 
  123450    297.48148    880.23023     27174.73    1.1008489   -9925.2491   -11697.834    1772.5848    30.064576    30.064576    30.064576 
  123500     308.8386    390.86124    27146.973    1.1019745   -9898.0051   -11738.263    1840.2578    30.054336    30.054336    30.054336 
  123550    302.10628    531.43312    27144.069    1.1020924   -9901.2619   -11701.404    1800.1423    30.053264    30.053264    30.053264 
  123600    302.25448    440.80898    27159.217    1.1014778   -9912.0067   -11713.032    1801.0254    30.058854    30.058854    30.058854 
  123650    301.94109    314.60183    27193.215    1.1001006   -9928.7415     -11727.9    1799.1581    30.071391    30.071391    30.071391 
  123700    294.04607    19.222931    27244.632    1.0980245    -9967.473   -11719.588    1752.1145    30.090332    30.090332    30.090332 
  123750    296.59651   -372.96597    27294.694    1.0960106   -9972.1794   -11739.491    1767.3116    30.108751    30.108751    30.108751 
  123800     298.2083   -739.77886    27333.926    1.0944375   -9984.9807   -11761.896    1776.9157     30.12317     30.12317     30.12317 
  123850    293.67558    58.051863    27350.274    1.0937833   -9942.5049   -11692.412    1749.9068    30.129174    30.129174    30.129174 
  123900    303.99317    136.13258    27358.743    1.0934447   -9898.9337   -11710.319    1811.3857    30.132284    30.132284    30.132284 
  123950    305.12609    400.73696    27370.242    1.0929853   -9881.6755   -11699.812    1818.1363    30.136505    30.136505    30.136505 
  124000    307.44418   -233.63256     27391.35    1.0921431   -9860.5778   -11692.527     1831.949     30.14425     30.14425     30.14425 
  124050    306.50395   -60.532443    27405.839    1.0915657   -9875.0297   -11701.376    1826.3465    30.149564    30.149564    30.149564 
  124100    300.57181   -39.841452    27417.131    1.0911161   -9906.8385   -11697.838     1790.999    30.153704    30.153704    30.153704 
  124150    297.87176   -672.61706    27423.957    1.0908445   -9940.5639   -11715.474    1774.9104    30.156206    30.156206    30.156206 
  124200    296.82961   -142.75643    27407.856    1.0914853   -9932.1952   -11700.896    1768.7006    30.150304    30.150304    30.150304 
  124250       298.74   -964.65588    27376.216    1.0927468   -9927.9528   -11708.037    1780.0839    30.138697    30.138697    30.138697 
  124300    299.20351   -212.87361    27311.372    1.0953413   -9931.0294   -11713.875    1782.8458    30.114882    30.114882    30.114882 
  124350    303.58888    39.179997    27240.973     1.098172   -9912.6291   -11721.606    1808.9766    30.088985    30.088985    30.088985 
  124400    306.06928    379.56864    27180.369    1.1006205   -9901.1055   -11724.862    1823.7564    30.066655    30.066655    30.066655 
  124450    299.68388    629.72429    27138.586    1.1023151   -9892.6733   -11678.381    1785.7082     30.05124     30.05124     30.05124 
  124500    302.31307    575.98325    27125.744    1.1028369   -9885.6643   -11687.039    1801.3746      30.0465      30.0465      30.0465 
  124550    302.92647    286.65169    27141.497    1.1021969   -9891.7648   -11696.794    1805.0296    30.052315    30.052315    30.052315 
  124600    304.94328     133.3587    27172.092    1.1009558   -9888.2898   -11705.337     1817.047    30.063603    30.063603    30.063603 
  124650    302.58113    -650.2909    27202.975    1.0997059   -9917.8555   -11720.827    1802.9718    30.074988    30.074988    30.074988 
  124700    294.00194   -347.32686    27212.906    1.0993046    -9933.793   -11685.644    1751.8515    30.078648    30.078648    30.078648 
  124750    298.01118   -61.101928    27206.065     1.099581   -9946.7764   -11722.518    1775.7411    30.076127    30.076127    30.076127 
  124800    289.87131     593.1117    27200.396    1.0998102   -9966.7281   -11693.967    1727.2386    30.074038    30.074038    30.074038 
  124850    307.25084   -200.78367      27213.3    1.0992887   -9943.7736    -11774.57    1830.7969    30.078793    30.078793    30.078793 
  124900    302.21413    482.98593    27227.469    1.0987166   -9922.8468   -11723.632     1800.785    30.084012    30.084012    30.084012 
  124950    293.08733    319.36979    27255.452    1.0975886   -9921.3608   -11667.763    1746.4017    30.094315    30.094315    30.094315 
  125000    305.30948  -0.99116629    27292.559    1.0960963    -9911.291    -11730.52    1819.2291    30.107966    30.107966    30.107966 
  125050     310.3306    292.43678    27337.133    1.0943091   -9891.5373   -11740.685    1849.1481    30.124348    30.124348    30.124348 
  125100    312.30651    212.94334    27399.638    1.0918127   -9879.9068   -11740.829    1860.9218     30.14729     30.14729     30.14729 
  125150    298.95238    -173.5366    27476.115    1.0887738   -9886.4625   -11667.812    1781.3494    30.175312    30.175312    30.175312 
  125200    294.70283   -158.33812    27544.439     1.086073   -9898.7879   -11654.816    1756.0278    30.200304    30.200304    30.200304 
  125250    304.00776   -475.97997    27595.712    1.0840551   -9878.3475    -11689.82    1811.4726    30.219031    30.219031    30.219031 
  125300    310.87492   -201.05104    27626.381    1.0828517   -9880.9864   -11733.378    1852.3915    30.230222    30.230222    30.230222 
  125350    301.70285   -548.32665    27649.262    1.0819555   -9894.1102   -11691.849    1797.7385    30.238565    30.238565    30.238565 
  125400    291.84477   -326.52052    27648.037    1.0820035   -9932.8956   -11671.893    1738.9977    30.238119    30.238119    30.238119 
  125450    296.02242   -496.50152     27619.47    1.0831226   -9958.9438   -11722.835    1763.8908    30.227701    30.227701    30.227701 
  125500    296.74505   -469.63283    27562.873    1.0853467   -9967.2354   -11735.432    1768.1967    30.207039    30.207039    30.207039 
  125550    295.18656     -69.3442    27487.528    1.0883217    -9977.343   -11736.253    1758.9103     30.17949     30.17949     30.17949 
  125600    292.14192    -380.6779    27401.757    1.0917283   -9992.8597   -11733.628    1740.7683    30.148067    30.148067    30.148067 
  125650     294.8661    604.88088    27307.592    1.0954929   -10001.457   -11758.458    1757.0008    30.113493    30.113493    30.113493 
  125700    293.28677      957.351    27243.746    1.0980602   -9986.7584   -11734.348    1747.5901    30.090006    30.090006    30.090006 
  125750    303.46785    398.58287    27222.567    1.0989145   -9958.8281   -11767.084    1808.2555    30.082207    30.082207    30.082207 
  125800    302.72607    468.71164    27229.471    1.0986358   -9918.7516   -11722.587    1803.8355     30.08475     30.08475     30.08475 
  125850    298.75438    746.57166    27256.155    1.0975603   -9891.6368   -11671.806    1780.1696    30.094574    30.094574    30.094574 
  125900    302.37383    332.02218    27300.553    1.0957753   -9884.6975   -11686.434    1801.7366    30.110905    30.110905    30.110905 
  125950    306.61983   -629.35005    27343.714    1.0940457   -9868.5196   -11695.557     1827.037    30.126765    30.126765    30.126765 
  126000    304.10582    191.65411    27366.529    1.0931336   -9883.9778   -11696.035    1812.0569    30.135142    30.135142    30.135142 
  126050    299.64247   -152.81487    27392.525    1.0920962   -9907.8039   -11693.265    1785.4614    30.144681    30.144681    30.144681 
  126100    300.21529   -376.91551    27411.793    1.0913286   -9945.7786   -11734.653    1788.8746    30.151747    30.151747    30.151747 
  126150    291.48721    39.795848    27419.931    1.0910047   -9991.5938   -11728.461    1736.8671    30.154731    30.154731    30.154731 
  126200    287.38918   -48.452745    27424.171     1.090836   -9994.6148   -11707.063    1712.4485    30.156285    30.156285    30.156285 
  126250    293.94849    306.24527    27421.008    1.0909618   -9988.9922   -11740.525     1751.533    30.155125    30.155125    30.155125 
  126300    300.66233    101.82246    27424.573      1.09082   -9968.1056   -11759.644    1791.5384    30.156432    30.156432    30.156432 
  126350    307.76118    379.67143    27437.184    1.0903186   -9959.3954   -11793.233    1833.8379    30.161054    30.161054    30.161054 
  126400    304.53831    326.29225    27465.209    1.0892061    -9964.494   -11779.128    1814.6339    30.171319    30.171319    30.171319 
  126450    298.37737    102.32164    27508.402    1.0874958   -9952.0264   -11729.949    1777.9231    30.187127    30.187127    30.187127 
  126500    297.97722   -55.825061    27552.817    1.0857428   -9962.5394   -11738.078    1775.5388    30.203365    30.203365    30.203365 
  126550    297.89422    205.61102    27590.127    1.0842746    -9946.063   -11721.107    1775.0442    30.216992    30.216992    30.216992 
  126600     301.6271   -450.58662    27626.446    1.0828491   -9935.5822   -11732.869    1797.2871    30.230245    30.230245    30.230245 
  126650    298.38458   -566.84054    27646.288    1.0820719   -9914.8844    -11692.85    1777.9661    30.237481    30.237481    30.237481 
  126700     304.0001   -304.91315    27641.569    1.0822567   -9868.1992   -11679.626    1811.4269    30.235761    30.235761    30.235761 
  126750    311.35624     526.9845    27629.781    1.0827184   -9830.3196   -11685.579    1855.2596    30.231462    30.231462    30.231462 
  126800    314.09601     298.5704    27639.808    1.0823256   -9828.5666   -11700.151    1871.5848    30.235119    30.235119    30.235119 
  126850    305.65444   -243.97963    27661.943    1.0814596    -9879.116   -11700.401    1821.2846    30.243187    30.243187    30.243187 
  126900     296.8631   -151.64442    27676.343    1.0808969   -9926.9025   -11695.803    1768.9002    30.248434    30.248434    30.248434 
  126950    297.70777   -181.63362    27681.914    1.0806794   -9941.9027   -11715.836    1773.9332    30.250464    30.250464    30.250464 
  127000    290.74278     186.5102    27680.034    1.0807528   -9947.8357   -11680.267    1732.4314    30.249779    30.249779    30.249779 
  127050     296.8071    174.73706    27680.794    1.0807231   -9936.6456   -11705.212    1768.5664    30.250056    30.250056    30.250056 
  127100    305.15037   -345.76141    27680.718     1.080726   -9934.3649   -11752.646     1818.281    30.250028    30.250028    30.250028 
  127150    292.36773    445.07352    27669.053    1.0811817   -9945.4812   -11687.595    1742.1138    30.245778    30.245778    30.245778 
  127200    304.36122   -254.16492    27662.647     1.081432   -9932.2342   -11745.813    1813.5787    30.243444    30.243444    30.243444 
  127250    303.53222   -830.43702    27652.179    1.0818414   -9917.9953   -11726.634     1808.639    30.239629    30.239629    30.239629 
  127300    296.85954   -260.86403    27614.027    1.0833361   -9909.6861   -11678.565    1768.8789    30.225715    30.225715    30.225715 
  127350    305.85874    34.140142    27561.341     1.085407   -9903.8284    -11726.33    1822.5019     30.20648     30.20648     30.20648 
  127400      307.095    291.42463    27510.476    1.0874139   -9885.3755   -11715.244    1829.8684    30.187886    30.187886    30.187886 
  127450    305.53678    354.28788    27477.879    1.0887038   -9881.3324   -11701.916    1820.5835    30.175958    30.175958    30.175958 
  127500     309.4694   -160.92495    27460.745    1.0893832   -9871.3798   -11715.396    1844.0165    30.169685    30.169685    30.169685 
  127550    303.56578    1.7801073    27435.478    1.0903864    -9893.216   -11702.055     1808.839    30.160429    30.160429    30.160429 
  127600    297.20848    94.114512    27407.455    1.0915013   -9936.8063   -11707.764    1770.9581    30.150156    30.150156    30.150156 
  127650    293.89941   -190.36602    27380.963    1.0925574   -9978.3475   -11729.588    1751.2406    30.140439    30.140439    30.140439 
  127700    297.14173    67.694521    27347.113    1.0939097   -9978.5607   -11749.121    1770.5604    30.128013    30.128013    30.128013 
  127750    302.18428   -550.83398    27310.706     1.095368   -9972.8497   -11773.457    1800.6071    30.114638    30.114638    30.114638 
  127800    296.39725     365.3099    27265.758    1.0971737   -9965.9069   -11732.031    1766.1243    30.098108    30.098108    30.098108 
  127850    300.34428     29.62483    27232.844    1.0984998   -9925.0881   -11714.731    1789.6432    30.085992    30.085992    30.085992 
  127900    304.27687   -164.41075    27203.703    1.0996765   -9894.6983   -11707.774    1813.0761    30.075256    30.075256    30.075256 
  127950    304.96558    429.33197    27179.101    1.1006719   -9872.8885   -11690.068    1817.1799    30.066188    30.066188    30.066188 
  128000    304.28373     188.4487    27170.038     1.101039   -9867.7985   -11680.916     1813.117    30.062845    30.062845    30.062845 
  128050    299.56525    526.04358    27171.361    1.1009854   -9869.0626   -11654.064    1785.0013    30.063333    30.063333    30.063333 
  128100    299.68708    -91.09421    27194.763     1.100038   -9887.2876   -11673.015    1785.7272    30.071962    30.071962    30.071962 
  128150    300.70966   -213.93511    27226.658    1.0987494   -9877.7253   -11669.546    1791.8204    30.083713    30.083713    30.083713 
  128200    303.25917   -392.81845    27256.259    1.0975561   -9873.5817   -11680.594     1807.012    30.094612    30.094612    30.094612 
  128250    308.19238   -718.28212    27270.913    1.0969663   -9884.7583   -11721.166    1836.4073    30.100004    30.100004    30.100004 
  128300    302.85114   -55.898163    27258.907    1.0974494    -9911.021   -11715.602    1804.5807    30.095587    30.095587    30.095587 
  128350    297.57744     312.6069    27243.904    1.0980538   -9917.1616   -11690.318    1773.1566    30.090064    30.090064    30.090064 
  128400     286.9463   -18.193937    27236.415    1.0983558   -9934.9476   -11644.757    1709.8095    30.087307    30.087307    30.087307 
  128450    299.46459    449.12513    27227.463    1.0987169   -9911.5113   -11695.913    1784.4015     30.08401     30.08401     30.08401 
  128500    302.51249    428.92614    27236.124    1.0983675   -9874.5045   -11677.067    1802.5628    30.087199    30.087199    30.087199 
  128550    309.22281    619.22938    27267.856    1.0970893   -9837.3097   -11679.857    1842.5472     30.09888     30.09888     30.09888 
  128600    303.34239    460.48318    27328.385    1.0946594   -9826.5574   -11634.065    1807.5079    30.121134    30.121134    30.121134 
  128650    309.14302      166.332    27412.894    1.0912848   -9823.5565   -11665.628    1842.0717    30.152151    30.152151    30.152151 
  128700    300.60303    147.00508    27512.839    1.0873205   -9837.2612   -11628.446     1791.185     30.18875     30.18875     30.18875 
  128750    300.90333   -186.36177    27617.042    1.0832179   -9871.6516   -11664.626    1792.9744    30.226815    30.226815    30.226815 
  128800    299.55064   -473.50684    27710.599    1.0795607   -9910.8476   -11695.762    1784.9142    30.260909    30.260909    30.260909 
  128850    288.84547   -1128.7217    27777.492    1.0769609   -9957.9383   -11679.064    1721.1259    30.285239    30.285239    30.285239 
  128900    295.77805   -751.64567    27793.865    1.0763265   -9965.6358    -11728.07    1762.4347    30.291189    30.291189    30.291189 
  128950    295.03648   -471.31675    27772.058    1.0771716    -9943.631   -11701.647    1758.0159    30.283264    30.283264    30.283264 
  129000    297.11594    -352.2569    27727.094    1.0789184   -9929.6515   -11700.058    1770.4067    30.266912    30.266912    30.266912 
  129050    301.94818    91.961792    27672.167      1.08106   -9903.2538   -11702.454    1799.2003    30.246913    30.246913    30.246913 
  129100    297.81588    27.784981    27616.682     1.083232   -9875.7354   -11650.313    1774.5774    30.226683    30.226683    30.226683 
  129150    303.53095    89.922597    27559.858    1.0854654   -9861.8694   -11670.501    1808.6314    30.205938    30.205938    30.205938 
  129200    301.81102    914.39236    27512.856    1.0873198   -9850.0409   -11648.424     1798.383    30.188757    30.188757    30.188757 
  129250     301.9993      289.886    27495.038    1.0880244   -9873.2214   -11672.726    1799.5049    30.182238    30.182238    30.182238 
  129300    295.62724    242.03558    27488.094    1.0882993   -9914.9719   -11676.508    1761.5361    30.179697    30.179697    30.179697 
  129350    304.61848   -138.41493    27489.719     1.088235    -9948.129   -11763.241    1815.1116    30.180292    30.180292    30.180292 
  129400    287.57825   -659.73825    27488.617    1.0882786   -9993.4875   -11707.063    1713.5751    30.179889    30.179889    30.179889 
  129450    292.03751   -335.93011    27460.794    1.0893812   -9980.3451   -11720.491    1740.1462    30.169703    30.169703    30.169703 
  129500    295.16557    -156.3387    27417.678    1.0910943   -9964.4493   -11723.234    1758.7851    30.153905    30.153905    30.153905 
  129550    301.59591    120.72313    27377.113     1.092711   -9951.8707   -11748.972    1797.1012    30.139026    30.139026    30.139026 
  129600    299.95485   -44.053746    27349.089    1.0938307   -9927.6638   -11714.987    1787.3228    30.128739    30.128739    30.128739 
  129650    300.12689    228.99499    27324.585    1.0948116   -9919.1592   -11707.507    1788.3479    30.119738    30.119738    30.119738 
  129700    302.52336   -158.10217    27308.212     1.095468    -9906.479   -11709.107    1802.6276    30.113721    30.113721    30.113721 
  129750    294.12731   -194.35071    27288.076    1.0962764   -9914.8479   -11667.446    1752.5985    30.106318    30.106318    30.106318 
  129800    301.52159    379.30131    27257.493    1.0975064   -9905.6063   -11702.265    1796.6584    30.095066    30.095066    30.095066 
  129850    298.84341    470.03614    27241.262    1.0981603   -9913.9185   -11694.619    1780.7001    30.089091    30.089091    30.089091 
  129900     295.8954    513.70839    27246.642    1.0979435   -9926.3029   -11689.437     1763.134    30.091072    30.091072    30.091072 
  129950     298.8918    186.67888    27267.164    1.0971171    -9926.307   -11707.295    1780.9884    30.098625    30.098625    30.098625 
SHAKE stats (type/ave/delta) on step 130000
  1 0.957954 0.00185607
  1 104.404 0.0814746
  130000    301.30458   -224.24571    27291.676    1.0961318   -9928.0195   -11723.385    1795.3653    30.107641    30.107641    30.107641 
  130050    299.19331    720.77685    27315.596    1.0951719   -9938.0703   -11720.855     1782.785    30.116435    30.116435    30.116435 
  130100    294.56293    222.13609    27359.506    1.0934142   -9945.8775   -11701.072    1755.1943    30.132564    30.132564    30.132564 
  130150    295.28656    216.19329    27409.552    1.0914178   -9946.5445   -11706.051    1759.5061    30.150925    30.150925    30.150925 
  130200    293.56918   -398.00451    27461.457    1.0893549   -9931.5766   -11680.849    1749.2729    30.169945    30.169945    30.169945 
  130250    292.85717    177.52924    27496.991    1.0879472   -9911.2997    -11656.33    1745.0302    30.182953    30.182953    30.182953 
  130300    305.45788   -161.52027     27526.94    1.0867635   -9874.1854   -11694.299    1820.1133    30.193907    30.193907    30.193907 
  130350    301.81696    465.55494    27554.617    1.0856719   -9846.6034   -11645.022    1798.4184    30.204023    30.204023    30.204023 
  130400    303.63551    295.83605    27595.579    1.0840603   -9854.9683   -11664.223    1809.2545    30.218983    30.218983    30.218983 
  130450    305.83196   -153.68184    27639.468     1.082339   -9835.4901   -11657.832    1822.3424    30.234994    30.234994    30.234994 
  130500    299.96894    -484.9587     27669.41    1.0811677   -9860.1008   -11647.508    1787.4067    30.245908    30.245908    30.245908 
  130550    299.91347      -1204.9     27671.24    1.0810962   -9888.5139    -11675.59    1787.0762    30.246575    30.246575    30.246575 
  130600    300.38337   -1383.4631    27623.685    1.0829573   -9910.9646   -11700.841    1789.8761    30.229238    30.229238    30.229238 
  130650    305.11502   -681.94016    27529.062    1.0866797   -9902.9325   -11721.003    1818.0703    30.194683    30.194683    30.194683 
  130700    305.68511    545.94831    27423.686    1.0908553   -9894.4243   -11715.892    1821.4673    30.156107    30.156107    30.156107 
  130750    307.80751    605.01522    27354.589    1.0936107   -9901.6705   -11735.784    1834.1139    30.130759    30.130759    30.130759 
  130800    302.84331    947.39409    27328.079    1.0946716   -9923.4288   -11727.963     1804.534    30.121022    30.121022    30.121022 
  130850    300.53535    939.18189    27348.272    1.0938634    -9949.896   -11740.678    1790.7817    30.128439    30.128439    30.128439 
  130900    287.98562    189.76057    27401.609    1.0917342   -9970.5609   -11686.563    1716.0024    30.148012    30.148012    30.148012 
  130950    288.93648   -168.98495    27448.266    1.0898784   -9972.5355   -11694.204    1721.6683    30.165114    30.165114    30.165114 
  131000    298.61369   -262.39441    27472.592    1.0889134   -9957.2392    -11736.57    1779.3313    30.174023    30.174023    30.174023 
  131050    298.60255    174.39382    27483.162    1.0884946   -9942.7818   -11722.047    1779.2649    30.177892    30.177892    30.177892 
  131100    301.84875    428.16316    27497.801    1.0879151   -9933.0642   -11731.672    1798.6078    30.183249    30.183249    30.183249 
  131150    306.24387    530.43806    27527.836    1.0867281   -9933.8047   -11758.601    1824.7968    30.194235    30.194235    30.194235 
  131200     299.2467   -191.71853    27577.444    1.0847732   -9934.0255   -11717.129    1783.1031    30.212361    30.212361    30.212361 
  131250    298.57114   -455.07646    27613.526    1.0833558   -9956.4297   -11735.507    1779.0777    30.225532    30.225532    30.225532 
  131300    297.54041   -166.17331    27623.504    1.0829645   -9941.7308   -11714.667     1772.936    30.229172    30.229172    30.229172 
  131350    292.83252    -277.5283    27618.987    1.0831415   -9957.9301   -11702.813    1744.8834    30.227525    30.227525    30.227525 
  131400    300.85974   -462.55215    27599.933    1.0838893   -9919.0228   -11711.737    1792.7147    30.220572    30.220572    30.220572 
  131450    298.04014    114.98125    27566.555    1.0852017   -9903.7634   -11679.677    1775.9137    30.208384    30.208384    30.208384 
  131500    304.12493    267.55548    27535.938    1.0864084    -9879.735   -11691.906    1812.1707    30.197196    30.197196    30.197196 
  131550    304.93353    323.55257    27518.594    1.0870931   -9841.1905   -11658.179    1816.9889    30.190855    30.190855    30.190855 
  131600    305.82817    497.41764    27517.615    1.0871317   -9848.0242   -11670.344    1822.3197    30.190497    30.190497    30.190497 
  131650    306.52788     17.81116    27533.978    1.0864857   -9838.0686   -11664.558    1826.4891     30.19648     30.19648     30.19648 
  131700    298.68297    -332.0894    27548.482    1.0859137   -9883.4369   -11663.181    1779.7441    30.201781    30.201781    30.201781 
  131750    296.35154    -803.2089    27541.427    1.0861918   -9936.5906   -11702.443    1765.8519    30.199203    30.199203    30.199203 
  131800    293.46799     183.9193    27504.443    1.0876524   -9956.8826   -11705.553    1748.6699    30.185679    30.185679    30.185679 
  131850    296.25906     89.65942     27469.41    1.0890395   -9950.8216   -11716.123    1765.3009    30.172858    30.172858    30.172858 
  131900    299.81673    257.41039    27439.895    1.0902109   -9950.6047   -11737.104    1786.4998    30.162047    30.162047    30.162047 
  131950    296.48122    227.69767    27421.052    1.0909601   -9924.6727   -11691.297    1766.6247    30.155142    30.155142    30.155142 
  132000    300.80803   -4.2164624     27413.63    1.0912555   -9904.6695   -11697.076    1792.4066     30.15242     30.15242     30.15242 
  132050    296.99867    538.24663    27415.654    1.0911749    -9886.923   -11656.631    1769.7079    30.153163    30.153163    30.153163 
  132100     296.4314    305.95917    27433.978    1.0904461     -9858.99   -11625.318    1766.3278    30.159879    30.159879    30.159879 
  132150    303.46014    200.19571    27462.229    1.0893243   -9839.2667   -11647.476    1808.2095    30.170228    30.170228    30.170228 
  132200    300.64723   -418.44339    27495.669    1.0879994   -9833.0323   -11624.481    1791.4484    30.182469    30.182469    30.182469 
  132250    299.05355    262.17384    27516.209    1.0871873   -9840.3168   -11622.269    1781.9522    30.189983    30.189983    30.189983 
  132300    300.71361    443.43835    27539.261    1.0862773   -9832.4356    -11624.28     1791.844    30.198411    30.198411    30.198411 
  132350    305.21892   -306.07968    27570.839    1.0850331   -9853.1844   -11671.874    1818.6895    30.209949    30.209949    30.209949 
  132400    293.72328   -417.46837    27595.774    1.0840527   -9914.5943   -11664.785    1750.1911    30.219054    30.219054    30.219054 
  132450    301.58279   -907.55374     27604.52    1.0837092   -9953.9281   -11750.951    1797.0231    30.222246    30.222246    30.222246 
  132500    289.82064   -352.21205    27585.065    1.0844735   -9951.1254   -11678.062    1726.9366    30.215144    30.215144    30.215144 
  132550    292.42045   -594.70686    27543.026    1.0861288   -9949.3232   -11691.751     1742.428    30.199787    30.199787    30.199787 
  132600    302.89813   -98.216976    27471.031    1.0889752   -9920.7981   -11725.659    1804.8607    30.173451    30.173451    30.173451 
  132650    301.01855    979.00734    27399.938    1.0918007   -9892.3905   -11686.051    1793.6609      30.1474      30.1474      30.1474 
  132700    304.11091    954.93285    27372.049    1.0929132   -9864.7994   -11676.887    1812.0872    30.137168    30.137168    30.137168 
  132750    300.01325    761.91872    27387.211    1.0923081   -9871.2617   -11658.932    1787.6708    30.142731    30.142731    30.142731 
  132800    296.98652    536.34202    27436.018     1.090365   -9862.5012   -11632.137    1769.6355    30.160626    30.160626    30.160626 
  132850     301.6956   -616.57427    27501.787    1.0877574   -9880.4956   -11678.191    1797.6953    30.184707    30.184707    30.184707 
  132900    297.25043   -557.39805     27547.47    1.0859536   -9896.9065   -11668.115    1771.2081    30.201411    30.201411    30.201411 
  132950    295.49085   -638.99903    27565.652    1.0852373   -9938.5013   -11699.225    1760.7234    30.208054    30.208054    30.208054 
  133000    297.69023   -197.95269    27559.916    1.0854632   -9956.7588   -11730.587    1773.8287    30.205959    30.205959    30.205959 
  133050    293.89715    77.740553    27543.327    1.0861169   -9984.2092   -11735.436    1751.2271    30.199897    30.199897    30.199897 
  133100    296.73982   -113.90269    27522.107    1.0869543   -9999.0822   -11767.248    1768.1655     30.19214     30.19214     30.19214 
  133150    293.22731   -345.16414    27493.821    1.0880726   -9998.1631   -11745.399    1747.2358    30.181793    30.181793    30.181793 
  133200    293.87178    243.75726    27451.557    1.0897478   -9996.4847   -11747.561     1751.076     30.16632     30.16632     30.16632 
  133250    293.32851    632.63924    27413.978    1.0912416   -9965.0814    -11712.92    1747.8388    30.152548    30.152548    30.152548 
  133300    305.59614    501.40257    27392.063    1.0921147   -9907.1819   -11728.119    1820.9372    30.144511    30.144511    30.144511 
  133350    307.05343      253.576     27391.17    1.0921502   -9870.7953   -11700.416    1829.6206    30.144184    30.144184    30.144184 
  133400    296.45842    313.21037    27400.162    1.0917918   -9891.3516    -11657.84    1766.4888    30.147482    30.147482    30.147482 
  133450    298.30079    158.47584    27411.138    1.0913546   -9905.7538   -11683.221    1777.4668    30.151507    30.151507    30.151507 
  133500    300.22511    -413.0397    27423.071    1.0908798   -9919.4468    -11708.38    1788.9332    30.155881    30.155881    30.155881 
  133550    306.45695   -9.3911189    27424.448     1.090825   -9911.7746   -11737.841    1826.0664    30.156386    30.156386    30.156386 
  133600    294.83621    96.491126    27427.081    1.0907202   -9933.2225   -11690.045    1756.8226    30.157351    30.157351    30.157351 
  133650    297.67803    -175.2736    27429.096    1.0906401   -9966.2366   -11739.993     1773.756     30.15809     30.15809     30.15809 
  133700    294.67945    342.46453    27424.439    1.0908253   -9992.8822   -11748.771    1755.8886    30.156383    30.156383    30.156383 
  133750    295.40557   -205.17534    27426.294    1.0907516    -10004.12   -11764.335    1760.2152    30.157063    30.157063    30.157063 
  133800    294.68741   -469.43842     27417.69    1.0910939   -10025.559   -11781.495     1755.936    30.153909    30.153909    30.153909 
  133850    295.00251   -456.56625    27382.419    1.0924993   -10002.962   -11760.776    1757.8136    30.140973    30.140973    30.140973 
  133900    293.24242    563.98462      27329.1    1.0946307   -9975.2349   -11722.561    1747.3258    30.121397    30.121397    30.121397 
  133950    304.18111    322.89753    27288.399    1.0962634   -9893.8667   -11706.372    1812.5055    30.106436    30.106436    30.106436 
  134000    303.42182    240.98104    27257.712    1.0974976   -9864.9298   -11672.911    1807.9812    30.095147    30.095147    30.095147 
  134050    305.44087    270.24707    27229.575    1.0986316   -9877.5443   -11697.556     1820.012    30.084788    30.084788    30.084788 
  134100    301.49304    99.993678    27203.523    1.0996838   -9896.5764   -11693.065    1796.4883     30.07519     30.07519     30.07519 
  134150    299.56103    44.439893     27178.13    1.1007112   -9919.9014   -11704.878    1784.9761     30.06583     30.06583     30.06583 
  134200    305.13604    236.88273    27151.975    1.1017715   -9945.8875   -11764.083    1818.1956    30.056182    30.056182    30.056182 
  134250    301.77888    117.61092    27130.133    1.1026586   -9977.8641   -11776.056    1798.1915     30.04812     30.04812     30.04812 
  134300     293.1815    463.74634    27119.661    1.1030843   -9994.8655   -11741.828    1746.9628    30.044254    30.044254    30.044254 
  134350    288.00257   -251.80898     27124.14    1.1029022   -9999.1365    -11715.24    1716.1034    30.045908    30.045908    30.045908 
  134400      294.407   -36.041165    27118.988    1.1031117   -9971.7576   -11726.023    1754.2651    30.044005    30.044005    30.044005 
  134450    298.95167    908.20228     27106.59    1.1036162   -9935.9745    -11717.32    1781.3451    30.039426    30.039426    30.039426 
  134500    309.76118      917.324    27120.696    1.1030422   -9914.8202   -11760.575    1845.7551    30.044636    30.044636    30.044636 
  134550    301.85959     468.2099    27178.009    1.1007161   -9918.7821   -11717.455    1798.6724    30.065785    30.065785    30.065785 
  134600    304.76797    -647.1998    27259.927    1.0974084   -9932.4112   -11748.414    1816.0024    30.095962    30.095962    30.095962 
  134650    298.47307   -603.92364    27330.291     1.094583   -9946.7919   -11725.285    1778.4934    30.121834    30.121834    30.121834 
  134700     292.3893    -898.1789    27377.954    1.0926774   -9944.2726   -11686.515    1742.2423    30.139335    30.139335    30.139335 
  134750    298.60727   -868.89689    27388.139    1.0922711    -9954.486   -11733.779     1779.293    30.143072    30.143072    30.143072 
  134800     295.6788   -461.97604    27363.076    1.0932716   -9921.2872   -11683.131    1761.8433    30.133874    30.133874    30.133874 
  134850    312.00116     115.9655    27315.629    1.0951705   -9875.8756   -11734.978    1859.1024    30.116447    30.116447    30.116447 
  134900     307.7877    463.90901    27274.609    1.0968177   -9843.3424   -11677.338    1833.9959    30.101364    30.101364    30.101364 
  134950    311.98684    603.02506    27250.187    1.0978006   -9841.9704   -11700.987    1859.0171    30.092377    30.092377    30.092377 
  135000    304.45448    768.02542    27250.749     1.097778   -9882.3342   -11696.469    1814.1344    30.092584    30.092584    30.092584 
  135050    301.04537   -163.11071    27278.109    1.0966769   -9927.6667   -11721.487    1793.8208    30.102652    30.102652    30.102652 
  135100    297.09506   -415.13173    27296.923    1.0959211   -9963.6473    -11733.93    1770.2823    30.109571    30.109571    30.109571 
  135150    306.46974   -548.02261    27292.694    1.0960909   -9976.7153   -11802.858    1826.1426    30.108016    30.108016    30.108016 
  135200    296.87779   -450.48177    27269.242    1.0970335   -9998.7306   -11767.718    1768.9877    30.099389    30.099389    30.099389 
  135250    298.91497    655.92119    27233.786    1.0984618   -9994.9946   -11776.121    1781.1265    30.086339    30.086339    30.086339 
  135300    297.88564    540.04137    27222.133     1.098932     -9997.54   -11772.533    1774.9931    30.082047    30.082047    30.082047 
  135350    295.93848     241.3863    27235.713    1.0983841    -9979.395   -11742.786    1763.3906    30.087048    30.087048    30.087048 
  135400    299.98741   -128.45041     27258.78    1.0974546     -9937.68   -11725.197    1787.5168     30.09554     30.09554     30.09554 
  135450    299.04549   -317.92572    27281.992    1.0965208    -9890.876    -11672.78    1781.9042     30.10408     30.10408     30.10408 
  135500    305.34156   -884.65653    27288.292    1.0962677   -9868.0224   -11687.443    1819.4202    30.106397    30.106397    30.106397 
  135550    310.78594    181.55294    27270.087    1.0969995   -9875.6865   -11727.548    1851.8613    30.099701    30.099701    30.099701 
  135600    303.36173    823.02106     27266.58    1.0971406   -9873.2383   -11680.861    1807.6231     30.09841     30.09841     30.09841 
  135650    289.45432    234.39136    27291.776    1.0961277   -9897.8017   -11622.556    1724.7539    30.107678    30.107678    30.107678 
  135700    291.61313   -337.52904    27316.513    1.0951351   -9925.5137   -11663.131    1737.6174    30.116772    30.116772    30.116772 
  135750    291.24653   -571.87133    27324.436    1.0948176   -9923.7846   -11659.218     1735.433    30.119683    30.119683    30.119683 
  135800    295.68446    -634.5939    27306.667      1.09553   -9914.6747   -11676.552     1761.877    30.113153    30.113153    30.113153 
  135850    303.73407    289.23424    27271.886    1.0969272   -9850.3676   -11660.209    1809.8418    30.100363    30.100363    30.100363 
  135900    308.35695   -41.104161    27247.792    1.0978971    -9820.999   -11658.387    1837.3878    30.091496    30.091496    30.091496 
  135950    312.44131    485.31482    27225.039    1.0988147   -9807.2891   -11669.014    1861.7251    30.083117    30.083117    30.083117 
  136000    303.45004    1108.3946    27225.016    1.0988156   -9847.3554   -11655.505    1808.1494    30.083109    30.083109    30.083109 
  136050    300.69818   -474.94771    27266.371     1.097149   -9882.1992   -11673.951     1791.752    30.098333    30.098333    30.098333 
  136100      297.146   -158.39927    27300.896    1.0957616   -9894.9316   -11665.517    1770.5858    30.111032    30.111032    30.111032 
  136150    299.70433    502.23991    27325.179    1.0947878   -9905.3438   -11691.174      1785.83    30.119956    30.119956    30.119956 
  136200    302.16946    -118.8341     27359.77    1.0934037   -9914.2213    -11714.74    1800.5188    30.132661    30.132661    30.132661 
  136250    301.59548   -583.76486    27392.008    1.0921168   -9941.9452   -11739.044    1797.0987    30.144491    30.144491    30.144491 
  136300    294.94737   -652.86589    27407.113    1.0915149   -9960.9987   -11718.484     1757.485    30.150031    30.150031    30.150031 
  136350    294.61965   -1125.5149    27395.617    1.0919729   -9985.3695   -11740.902    1755.5322    30.145815    30.145815    30.145815 
  136400    285.18796   -540.10002    27346.859    1.0939199   -9970.5584   -11669.891    1699.3322     30.12792     30.12792     30.12792 
  136450    296.06642   -147.77885    27269.689    1.0970156   -9928.3267    -11692.48     1764.153    30.099554    30.099554    30.099554 
  136500    301.27352    361.82002    27180.054    1.1006333   -9890.7753   -11685.956    1795.1803    30.066539    30.066539    30.066539 
  136550    305.75613    635.33148    27102.583    1.1037794   -9870.2164   -11692.107    1821.8905    30.037946    30.037946    30.037946 
  136600    298.03543    1092.5053    27052.702    1.1058146   -9851.1245    -11627.01    1775.8857    30.019507    30.019507    30.019507 
  136650    300.48117     726.9646    27040.129    1.1063288   -9853.9582   -11644.417    1790.4589    30.014855    30.014855    30.014855 
  136700    300.06541    532.04735    27055.249    1.1057105   -9853.1059   -11641.087    1787.9815    30.020449    30.020449    30.020449 
  136750    295.27917    571.04345    27089.594    1.1043087   -9880.1445   -11639.607     1759.462    30.033146    30.033146    30.033146 
  136800     298.1549    -299.2586    27142.156    1.1021701   -9922.6644   -11699.262    1776.5975    30.052558    30.052558    30.052558 
  136850    294.51826   -654.47421    27191.095    1.1001864   -9943.7497   -11698.678    1754.9281     30.07061     30.07061     30.07061 
  136900    294.87084    122.90853    27224.576    1.0988334   -9930.4348   -11687.464     1757.029    30.082947    30.082947    30.082947 
  136950    295.11798   -299.47069    27253.993    1.0976473   -9929.7951   -11688.297    1758.5016    30.093778    30.093778    30.093778 
  137000    302.06979     64.77697      27277.9    1.0966853   -9913.8495   -11713.774    1799.9249    30.102575    30.102575    30.102575 
  137050    300.89597    459.35285    27305.687    1.0955693   -9902.4991    -11695.43    1792.9306    30.112793    30.112793    30.112793 
  137100    289.85508    585.47433     27346.03     1.093953   -9925.8666   -11653.008    1727.1419    30.127616    30.127616    30.127616 
  137150    294.64551    41.166494    27401.429    1.0917413   -9915.2085   -11670.895    1755.6863    30.147947    30.147947    30.147947 
  137200    296.58371   -1211.8468    27452.057    1.0897279   -9910.7812   -11678.017    1767.2354    30.166503    30.166503    30.166503 
  137250    301.83776    -1350.565    27457.396     1.089516   -9870.8613   -11669.404    1798.5423    30.168458    30.168458    30.168458 
  137300    297.55375   -541.67834     27413.21    1.0912722   -9848.0806   -11621.096    1773.0155    30.152267    30.152267    30.152267 
  137350    302.71707    916.13517    27351.173    1.0937474   -9813.5059   -11617.288    1803.7818    30.129504    30.129504    30.129504 
  137400    310.52136    408.87645     27315.47    1.0951769   -9804.9957    -11655.28    1850.2848    30.116389    30.116389    30.116389 
  137450    303.84812     120.7008    27296.538    1.0959365   -9821.5835   -11632.105    1810.5214    30.109429    30.109429    30.109429 
  137500    306.04256    122.50836    27282.503    1.0965003   -9851.6526    -11675.25    1823.5972    30.104268    30.104268    30.104268 
  137550    304.70916     188.6051    27279.383    1.0966257   -9884.9924   -11700.644     1815.652     30.10312     30.10312     30.10312 
  137600    302.30002    -57.23229    27282.968    1.0964816   -9901.0736    -11702.37    1801.2968    30.104439    30.104439    30.104439 
  137650    306.10283   -415.27216    27279.917    1.0966042   -9916.8238    -11740.78    1823.9563    30.103317    30.103317    30.103317 
  137700    295.88478   -127.19578      27268.7    1.0970554   -9943.5322   -11706.603    1763.0707     30.09919     30.09919     30.09919 
  137750     298.4616    57.159413    27255.289    1.0975952   -9944.4722   -11722.897     1778.425    30.094255    30.094255    30.094255 
  137800    305.47475   -436.63339    27241.238    1.0981613   -9932.4552   -11752.669    1820.2139    30.089083    30.089083    30.089083 
  137850    302.15229    462.41075    27221.718    1.0989488   -9936.6871   -11737.104    1800.4165    30.081894    30.081894    30.081894 
  137900    299.35813    795.72439    27217.929    1.0991017   -9931.4555   -11715.223    1783.7671    30.080498    30.080498    30.080498 
  137950    289.15074    119.40138    27238.063    1.0982893     -9950.37   -11673.315     1722.945    30.087913    30.087913    30.087913 
  138000    293.60742   -364.78767    27262.157    1.0973186   -9969.6243   -11719.125    1749.5007    30.096783    30.096783    30.096783 
  138050     291.7831    71.936787    27273.039    1.0968808   -9971.1936   -11709.824    1738.6302    30.100787    30.100787    30.100787 
  138100    289.37613    552.41001    27284.028     1.096439   -9946.5713   -11670.859     1724.288    30.104829    30.104829    30.104829 
  138150    302.17196   -488.48953    27306.775    1.0955257   -9914.1752   -11714.709    1800.5337    30.113193    30.113193    30.113193 
  138200    295.60399   -94.971302    27315.162    1.0951893    -9885.857   -11647.255    1761.3976    30.116276    30.116276    30.116276 
  138250    302.10863   -226.99716    27310.131    1.0953911    -9852.079   -11652.235    1800.1563    30.114426    30.114426    30.114426 
  138300    299.40473   -118.01246    27292.669    1.0960919   -9837.1462   -11621.191    1784.0448    30.108007    30.108007    30.108007 
  138350    307.38832    537.78632    27268.661    1.0970569   -9821.3386   -11652.955    1831.6161    30.099176    30.099176    30.099176 
  138400    304.51781    350.91442    27262.909    1.0972884   -9844.4193   -11658.931    1814.5118    30.097059    30.097059    30.097059 
  138450    299.73176   -204.04963    27264.593    1.0972206    -9881.469   -11667.462    1785.9934    30.097679    30.097679    30.097679 
  138500    298.98631    -128.7971    27253.359    1.0976729   -9910.0016   -11691.553    1781.5516    30.093545    30.093545    30.093545 
  138550    299.50028   -392.03047    27233.121    1.0984886   -9938.1779   -11722.792    1784.6142    30.086094    30.086094    30.086094 
  138600    296.20636   -402.42868    27196.523    1.0999668   -9945.1599   -11710.147    1764.9869    30.072611    30.072611    30.072611 
  138650    296.07942   -510.91126    27136.451    1.1024018   -9954.2597    -11718.49    1764.2304    30.050452    30.050452    30.050452 
  138700    301.76523    488.18838    27055.902    1.1056838   -9931.5708   -11729.681    1798.1101     30.02069     30.02069     30.02069 
  138750    306.70755    970.63747    26991.918    1.1083048   -9918.8466   -11746.406    1827.5597    29.997006    29.997006    29.997006 
  138800    305.40873    930.96536    26967.553    1.1093062   -9934.6017   -11754.422    1819.8205    29.987978    29.987978    29.987978 
  138850     299.3436    607.29041    26982.641    1.1086859   -9970.0781   -11753.759    1783.6805    29.993569    29.993569    29.993569 
  138900    294.85227    469.75305    27028.591     1.106801   -10010.276   -11767.194    1756.9183    30.010586    30.010586    30.010586 
  138950     291.7715    57.238605      27100.6    1.1038602   -10041.516   -11780.077    1738.5611    30.037213    30.037213    30.037213 
  139000     289.3988    -698.1414    27186.584     1.100369   -10023.556   -11747.979    1724.4231    30.068947    30.068947    30.068947 
  139050    295.41275   -1125.9171    27254.373     1.097632   -9991.7397   -11751.998     1760.258    30.093918    30.093918    30.093918 
  139100    293.64437   -420.65943    27283.198    1.0964724   -9961.4643   -11711.185    1749.7209    30.104524    30.104524    30.104524 
  139150    298.24294   -579.68506     27286.92    1.0963228   -9929.3927   -11706.515    1777.1221    30.105892    30.105892    30.105892 
  139200    305.83423   -667.28806    27260.893    1.0973695   -9906.5068   -11728.863    1822.3559    30.096317    30.096317    30.096317 
  139250    302.42477    273.25444    27208.327    1.0994896   -9907.9509   -11709.991    1802.0401     30.07696     30.07696     30.07696 
  139300    298.14205   -501.67373    27158.705    1.1014985      -9926.9   -11703.421    1776.5209    30.058665    30.058665    30.058665 
  139350    301.35253    551.41357    27096.752    1.1040169   -9913.2991    -11708.95     1795.651    30.035791    30.035791    30.035791 
  139400    301.56161    351.05783    27048.747    1.1059763    -9910.123    -11707.02    1796.8969    30.018044    30.018044    30.018044 
  139450    297.44678     553.0812    27014.431    1.1073812   -9920.2968   -11692.675    1772.3781    30.005344    30.005344    30.005344 
  139500    300.04933    1233.7281    26998.743    1.1080246    -9948.002   -11735.888    1787.8857    29.999535    29.999535    29.999535 
  139550    295.44756    640.34856    27027.767    1.1068348   -9997.8208   -11758.286    1760.4655    30.010281    30.010281    30.010281 
  139600    290.86132    382.06923    27089.551    1.1043104   -10031.482    -11764.62    1733.1377     30.03313     30.03313     30.03313 
  139650    295.66435    684.97633    27170.512    1.1010198   -10019.771   -11781.528    1761.7572     30.06302     30.06302     30.06302 
  139700    292.45016    131.60133    27276.742    1.0967319   -10019.831   -11762.436     1742.605    30.102149    30.102149    30.102149 
  139750    302.91881   -580.45118    27392.662    1.0920907   -10001.814   -11806.798    1804.9839    30.144731    30.144731    30.144731 
  139800     298.7431   -492.03874     27488.76    1.0882729   -9970.8213   -11750.924    1780.1023    30.179941    30.179941    30.179941 
  139850    293.27196   -751.00441    27550.298    1.0858421   -9957.1489   -11704.651    1747.5018    30.202445    30.202445    30.202445 
  139900    302.71779   -770.78117     27571.64    1.0850016   -9949.3576   -11753.144    1803.7861    30.210242    30.210242    30.210242 
  139950    305.18113   -660.75401    27561.057    1.0854182   -9937.2518   -11755.716    1818.4643    30.206376    30.206376    30.206376 
SHAKE stats (type/ave/delta) on step 140000
  1 0.957938 0.00192481
  1 104.405 0.0950706
  140000    299.05683    -716.5128    27527.051    1.0867591   -9932.4936   -11714.465    1781.9718    30.193948    30.193948    30.193948 
  140050    304.13616   -144.29553    27464.751    1.0892243    -9941.614   -11753.852    1812.2377    30.171152    30.171152    30.171152 
  140100     305.4451    85.649957    27393.515    1.0920568   -9938.0051   -11758.042    1820.0372    30.145044    30.145044    30.145044 
  140150    304.08981    284.85438    27332.974    1.0944756   -9959.9272   -11771.889    1811.9615     30.12282     30.12282     30.12282 
  140200    295.02068    568.26452    27283.838    1.0964467   -9997.6103   -11755.532    1757.9218    30.104759    30.104759    30.104759 
  140250    297.86241    776.38502    27249.528    1.0978272   -10004.527   -11779.382    1774.8547    30.092135    30.092135    30.092135 
  140300    295.07533   -36.154292    27242.695    1.0981026   -10021.763    -11780.01    1758.2475    30.089619    30.089619    30.089619 
  140350    293.71137   -599.00453    27240.583    1.0981877   -10001.696   -11751.816    1750.1201    30.088842    30.088842    30.088842 
  140400    299.57909    39.237269    27224.707    1.0988281   -9977.9281   -11763.012    1785.0837    30.082995    30.082995    30.082995 
  140450    300.72004   -452.69352    27206.485     1.099564   -9956.9513   -11748.833    1791.8822    30.076282    30.076282    30.076282 
  140500    298.97165   -149.32159    27174.417    1.1008616   -9958.4776   -11739.942    1781.4642     30.06446     30.06446     30.06446 
  140550    299.93949     232.3104    27131.807    1.1025905   -9951.2489    -11738.48    1787.2313    30.048738    30.048738    30.048738 
  140600    305.79014    143.08944    27092.871    1.1041751   -9967.2945   -11789.388    1822.0931    30.034357    30.034357    30.034357 
  140650    297.60862     84.89644    27065.256    1.1053017   -9962.4361   -11735.779    1773.3424     30.02415     30.02415     30.02415 
  140700    308.20672    324.58704    27041.043    1.1062914   -9962.1481   -11798.641    1836.4927    30.015193    30.015193    30.015193 
  140750     290.5334    815.88149    27032.985    1.1066211   -9980.2425   -11711.426    1731.1837    30.012212    30.012212    30.012212 
  140800    299.30943    945.94551    27054.066    1.1057589   -9988.4651   -11771.942    1783.4769    30.020011    30.020011    30.020011 
  140850    297.96705     498.2744    27114.831    1.1032808   -9994.7577   -11770.236    1775.4782     30.04247     30.04247     30.04247 
  140900     303.6216    150.01547    27199.392    1.0998508   -9952.4396   -11761.611    1809.1716    30.073668    30.073668    30.073668 
  140950    300.04902   -225.42719    27293.843    1.0960447    -9914.097   -11701.981    1787.8839    30.108438    30.108438    30.108438 
  141000    296.28817   -127.71932    27373.763    1.0928447   -9879.7554    -11645.23    1765.4743    30.137797    30.137797    30.137797 
  141050    309.10153   -378.33249    27435.239    1.0903959   -9862.6611   -11704.486    1841.8245    30.160341    30.160341    30.160341 
  141100    303.63517    -534.8006    27481.709    1.0885521   -9876.2008   -11685.453    1809.2524     30.17736     30.17736     30.17736 
  141150    295.03857   -577.56763    27505.559    1.0876082   -9895.6738   -11653.702    1758.0284    30.186088    30.186088    30.186088 
  141200    301.12301   -1057.1828    27492.206    1.0881365   -9902.0229   -11696.306    1794.2834    30.181202    30.181202    30.181202 
  141250    300.12637   -61.971174    27439.556    1.0902244   -9921.7579   -11710.103    1788.3448    30.161923    30.161923    30.161923 
  141300    304.42735   -144.97464    27387.493    1.0922969   -9945.2002   -11759.173    1813.9728    30.142835    30.142835    30.142835 
  141350     299.3469    49.991613    27343.348    1.0940603   -9975.1825   -11758.883    1783.7002    30.126631    30.126631    30.126631 
  141400    295.51907    182.04093    27305.938    1.0955593   -10009.019    -11769.91    1760.8916    30.112885    30.112885    30.112885 
  141450    298.88748   -498.45118     27277.39    1.0967059   -10025.071   -11806.034    1780.9627    30.102387    30.102387    30.102387 
  141500    295.61373   -335.15719    27235.456    1.0983944   -10032.059   -11793.514    1761.4556    30.086954    30.086954    30.086954 
  141550    294.81346    377.26503    27178.904    1.1006799   -10015.974   -11772.661    1756.6871    30.066115    30.066115    30.066115 
  141600    295.19657    489.79814    27133.589    1.1025181    -10014.96    -11773.93    1758.9699    30.049396    30.049396    30.049396 
  141650    298.48151    10.763207    27104.563    1.1036988   -10000.033   -11778.577    1778.5437    30.038677    30.038677    30.038677 
  141700    305.62161   -385.66416    27078.338    1.1047677   -9988.8965   -11809.985    1821.0889    30.028986    30.028986    30.028986 
  141750    294.53986    649.28617    27051.766    1.1058529   -9992.6966   -11747.753    1755.0568     30.01916     30.01916     30.01916 
  141800    294.56654    323.59966    27045.069    1.1061267   -9973.3446    -11728.56    1755.2157    30.016683    30.016683    30.016683 
  141850    298.61448    88.458193    27052.955    1.1058042   -9953.2297   -11732.566     1779.336      30.0196      30.0196      30.0196 
  141900    306.37436   -194.58937    27069.345    1.1051347   -9919.5979   -11745.172    1825.5743    30.025661    30.025661    30.025661 
  141950    305.10881    780.75786    27090.174     1.104285   -9897.5213   -11715.555    1818.0334    30.033361    30.033361    30.033361 
  142000    309.11646    28.952464    27141.514    1.1021962   -9884.3808   -11726.294    1841.9135    30.052321    30.052321    30.052321 
  142050    302.26719    496.34629    27199.915    1.0998297   -9889.4548   -11690.556    1801.1011     30.07386     30.07386     30.07386 
  142100    302.51502   -271.05546    27267.928    1.0970864   -9910.0251   -11712.603    1802.5779    30.098906    30.098906    30.098906 
  142150    295.93659    57.925526    27329.785    1.0946033   -9931.3423   -11694.722    1763.3794    30.121649    30.121649    30.121649 
  142200    300.91183   -430.72037    27386.465    1.0923379   -9954.3338   -11747.359     1793.025    30.142458    30.142458    30.142458 
  142250    301.74019   -998.83729    27423.151    1.0908766   -9942.0633   -11740.024    1797.9609    30.155911    30.155911    30.155911 
  142300    300.71121   -136.76715    27421.249    1.0909522   -9948.2173   -11740.047    1791.8296    30.155214    30.155214    30.155214 
  142350    305.42381    136.99207    27409.641    1.0914143   -9951.2547   -11771.165    1819.9103    30.150958    30.150958    30.150958 
  142400    302.35948    346.72668     27407.09    1.0915158   -9976.5943   -11778.245    1801.6511    30.150023    30.150023    30.150023 
  142450    293.80322    449.06849    27419.693    1.0910141   -9986.8449   -11737.512    1750.6674    30.154643    30.154643    30.154643 
  142500    291.87489   -148.38831    27446.076    1.0899654   -10006.488   -11745.665    1739.1772    30.164312    30.164312    30.164312 
  142550    294.41471   -648.80181    27461.423    1.0893562   -10020.248   -11774.559    1754.3111    30.169933    30.169933    30.169933 
  142600    290.53728   -413.42284    27449.009    1.0898489    -10014.85   -11746.057    1731.2069    30.165386    30.165386    30.165386 
  142650    296.59427    43.816358    27421.307    1.0909499   -9985.1971   -11752.495    1767.2983    30.155235    30.155235    30.155235 
  142700    295.33027   -520.49489    27390.625     1.092172   -9960.3255   -11720.092    1759.7666    30.143984    30.143984    30.143984 
  142750    301.33997   -978.19626    27337.327    1.0943013   -9924.4059   -11719.982    1795.5762    30.124419    30.124419    30.124419 
  142800    301.17694   -181.06998    27253.811    1.0976547   -9896.3616   -11690.966    1794.6048    30.093711    30.093711    30.093711 
  142850     304.7214   -175.38536    27166.636    1.1011769    -9873.543   -11689.268    1815.7249     30.06159     30.06159     30.06159 
  142900    295.22961    998.97942    27085.471    1.1044767   -9881.7699   -11640.937    1759.1667    30.031623    30.031623    30.031623 
  142950    308.20293    1621.2828    27048.948    1.1059681   -9865.9001    -11702.37    1836.4701    30.018118    30.018118    30.018118 
  143000    310.49551    657.83937    27081.493     1.104639   -9893.6036   -11743.734    1850.1307    30.030152    30.030152    30.030152 
  143050    305.39402   -506.64779    27144.237    1.1020856   -9938.0539   -11757.787    1819.7328    30.053326    30.053326    30.053326 
  143100    292.59245   -775.00531    27187.857    1.1003174   -9985.6623   -11729.115    1743.4529    30.069416    30.069416    30.069416 
  143150    298.49161    -595.5581    27195.831    1.0999948   -9981.7719   -11760.376    1778.6038    30.072355    30.072355    30.072355 
  143200    290.27098   -16.122612    27178.111     1.100712   -9983.1856   -11712.806    1729.6201    30.065823    30.065823    30.065823 
  143250    295.49672    698.16627    27158.467    1.1015082   -9975.6622    -11736.42    1760.7583    30.058577    30.058577    30.058577 
  143300    300.98116    423.76396    27160.372    1.1014309   -9949.1059   -11742.544    1793.4382     30.05928     30.05928     30.05928 
  143350    299.54807    568.92568    27179.563    1.1006532   -9931.6471   -11716.546    1784.8989    30.066358    30.066358    30.066358 
  143400    302.70299    47.911059    27212.172    1.0993342   -9904.5953   -11708.293    1803.6979    30.078377    30.078377    30.078377 
  143450    300.27893    288.24499    27246.211    1.0979609   -9895.7431   -11684.997    1789.2538    30.090913    30.090913    30.090913 
  143500    314.57699    475.56246    27297.359    1.0959036   -9865.3374   -11739.788    1874.4508    30.109731    30.109731    30.109731 
  143550    306.96866     383.8797    27370.342    1.0929813    -9850.778   -11679.894    1829.1155    30.136541    30.136541    30.136541 
  143600    311.03076   -199.74019    27449.407    1.0898331   -9844.2927   -11697.613    1853.3201    30.165532    30.165532    30.165532 
  143650    296.06279   -1316.2728     27513.14    1.0873086   -9883.5169   -11647.648    1764.1314     30.18886     30.18886     30.18886 
  143700    296.07541   -1742.9741    27514.522    1.0872539   -9928.2644   -11692.471    1764.2066    30.189366    30.189366    30.189366 
  143750    291.85194   -1191.9196    27439.935    1.0902093   -9947.0731   -11686.114    1739.0404    30.162062    30.162062    30.162062 
  143800    299.34913   -378.96196    27318.158    1.0950692   -9938.2574   -11721.971    1783.7135    30.117376    30.117376    30.117376 
  143850    292.87727    897.25337     27191.85    1.1001559   -9944.5154   -11689.665      1745.15    30.070888    30.070888    30.070888 
  143900    298.77069    1274.7516    27102.174    1.1037961   -9913.5575   -11693.824    1780.2668    30.037795    30.037795    30.037795 
  143950    302.36191    1336.2361     27061.17    1.1054686    -9914.308   -11715.974    1801.6655    30.022639    30.022639    30.022639 
  144000    299.52939    1145.6797    27073.388    1.1049697   -9949.1295   -11733.917    1784.7876    30.027156    30.027156    30.027156 
  144050    298.33096    222.39104     27136.24    1.1024104   -9983.0005   -11760.647    1777.6466    30.050374    30.050374    30.050374 
  144100    292.52965   -63.378752      27215.6    1.0991958   -10005.635   -11748.714    1743.0786     30.07964     30.07964     30.07964 
  144150    291.15877    192.10785    27288.897    1.0962434   -10017.208   -11752.118    1734.9101    30.106619    30.106619    30.106619 
  144200    291.23098    138.81205    27359.455    1.0934163   -10003.106   -11738.447    1735.3403    30.132545    30.132545    30.132545 
  144250    291.79096   -274.52037    27421.355     1.090948   -9992.2938   -11730.971    1738.6771    30.155253    30.155253    30.155253 
  144300    300.48747    192.33062    27466.335    1.0891614   -9941.8227   -11732.319    1790.4964    30.171732    30.171732    30.171732 
  144350    301.47287    77.744062    27511.189    1.0873857   -9906.0385   -11702.407    1796.3681    30.188147    30.188147    30.188147 
  144400    306.41331   -18.575749    27555.275     1.085646   -9900.0296   -11725.836    1825.8064    30.204263    30.204263    30.204263 
  144450    298.64427   -151.82566    27590.964    1.0842417   -9911.4067    -11690.92    1779.5135    30.217298    30.217298    30.217298 
  144500    299.67126   -445.62679    27610.394    1.0834787   -9937.6508   -11723.284     1785.633    30.224389    30.224389    30.224389 
  144550    302.68738   -89.135806    27610.269    1.0834836   -9967.4473   -11771.052    1803.6049    30.224344    30.224344    30.224344 
  144600    295.27152   -195.40458    27604.866    1.0836956   -9976.1178   -11735.534    1759.4165    30.222372    30.222372    30.222372 
  144650    294.69552    97.035901     27592.81    1.0841692   -9977.7249   -11733.709    1755.9843    30.217972    30.217972    30.217972 
  144700    289.58844   -184.28575    27576.001      1.08483   -9994.3748   -11719.928    1725.5531    30.211834    30.211834    30.211834 
  144750    297.93317   -200.51926    27550.127    1.0858488   -9990.6233     -11765.9    1775.2763    30.202382    30.202382    30.202382 
  144800    294.39596    150.64936    27517.018    1.0871553   -10008.933   -11763.133    1754.1993    30.190279    30.190279    30.190279 
  144850    288.07318    328.49911     27486.47    1.0883636   -10032.967   -11749.491    1716.5242    30.179103    30.179103    30.179103 
  144900    297.89257    154.50988    27465.568    1.0891919    -10032.56   -11807.595    1775.0344    30.171451    30.171451    30.171451 
  144950    293.60165    285.22688    27453.082    1.0896872   -10010.607   -11760.073    1749.4664    30.166878    30.166878    30.166878 
  145000    302.29432   -417.58924    27442.411     1.090111   -9984.8551   -11786.118    1801.2628    30.162969    30.162969    30.162969 
  145050    301.33055   -111.65836    27420.946    1.0909643   -9955.2523   -11750.772      1795.52    30.155103    30.155103    30.155103 
  145100    302.72373   -356.05706    27396.918    1.0919211   -9914.6683    -11718.49    1803.8215    30.146292    30.146292    30.146292 
  145150    308.56678    623.60502    27363.964    1.0932361   -9892.9776   -11731.616    1838.6381      30.1342      30.1342      30.1342 
  145200    301.36043    1452.0538    27355.158     1.093588   -9899.1553   -11694.853    1795.6981    30.130968    30.130968    30.130968 
  145250    302.28119    478.46358    27403.092    1.0916751   -9908.7626   -11709.947    1801.1846    30.148557    30.148557    30.148557 
  145300      292.724   -284.38996    27474.673    1.0888309    -9935.673    -11679.91    1744.2367    30.174784    30.174784    30.174784 
  145350    295.38861   -577.44925    27528.696    1.0866942   -9953.6511   -11713.765    1760.1142    30.194549    30.194549    30.194549 
  145400    301.17108    431.40933    27557.083    1.0855747   -9950.9322   -11745.502    1794.5698    30.204924    30.204924    30.204924 
  145450    306.19526   -642.10382    27588.463      1.08434   -9957.7315   -11782.239    1824.5071    30.216385    30.216385    30.216385 
  145500    298.75243   -709.25844    27599.633    1.0839011    -9955.501   -11735.659     1780.158    30.220462    30.220462    30.220462 
  145550    297.02099   -378.95169    27584.467     1.084497   -10006.558   -11776.399    1769.8409    30.214926    30.214926    30.214926 
  145600    290.81196   -958.05235    27549.696    1.0858658   -10053.195   -11786.039    1732.8436    30.202225    30.202225    30.202225 
  145650    291.33595   -252.67281    27478.522    1.0886784   -10058.354    -11794.32    1735.9658    30.176194    30.176194    30.176194 
  145700    297.12536    214.96454    27391.793    1.0921254   -10038.158   -11808.621    1770.4628    30.144412    30.144412    30.144412 
  145750    302.55103    294.54611    27312.268    1.0953053   -10002.319   -11805.112    1802.7925    30.115212    30.115212    30.115212 
  145800    304.22202    8.6156178    27246.379    1.0979541   -9985.9508     -11798.7    1812.7493    30.090975    30.090975    30.090975 
  145850    302.85335    192.36247     27188.88     1.100276   -9975.9677   -11780.562    1804.5939    30.069793    30.069793    30.069793 
  145900    299.18905     340.5469    27141.053    1.1022149   -9961.1065   -11743.866    1782.7597    30.052151    30.052151    30.052151 
  145950    301.85615    661.30456    27108.313    1.1035461   -9920.4303   -11719.082    1798.6519    30.040062    30.040062    30.040062 
  146000     304.6349    851.47939    27105.366    1.1036661   -9856.7876   -11671.997    1815.2095    30.038974    30.038974    30.038974 
  146050    312.19683    235.88474    27134.527      1.10248   -9830.0492   -11690.317    1860.2683    30.049742    30.049742    30.049742 
  146100    304.81246     246.6279    27176.632    1.1007719   -9838.4847   -11654.752    1816.2675    30.065277    30.065277    30.065277 
  146150    305.78765   -251.32326    27220.834    1.0989844   -9850.7315    -11672.81    1822.0783    30.081568    30.081568    30.081568 
  146200    303.49344   -199.68865    27252.696    1.0976996   -9884.0293   -11692.437    1808.4079    30.093301    30.093301    30.093301 
  146250     298.3931   -81.160755     27271.42    1.0969459   -9898.7663   -11676.783    1778.0168    30.100191    30.100191    30.100191 
  146300    297.09989    89.813752    27280.228    1.0965917   -9918.7174   -11689.029    1770.3111    30.103431    30.103431    30.103431 
  146350    301.74713   -134.45697    27286.798    1.0963277   -9924.1585   -11722.161    1798.0023    30.105848    30.105848    30.105848 
  146400    298.54637   -533.42855    27285.931    1.0963626    -9935.445   -11714.375    1778.9301    30.105529    30.105529    30.105529 
  146450    292.17696   -778.42986     27259.98    1.0974063   -9932.6155   -11673.593    1740.9771    30.095981    30.095981    30.095981 
  146500    296.72737   -614.61783    27196.265    1.0999772   -9921.2524   -11689.344    1768.0914    30.072515    30.072515    30.072515 
  146550    302.16408    555.08041    27110.481    1.1034579   -9869.1138     -11669.6    1800.4867    30.040863    30.040863    30.040863 
  146600     311.8612     660.0578    27046.574    1.1060652   -9827.7144   -11685.983    1858.2684     30.01724     30.01724     30.01724 
  146650    307.66436    972.09972    27018.213    1.1072262   -9823.0877   -11656.349    1833.2609    30.006744    30.006744    30.006744 
  146700    310.33062    673.59506    27026.677    1.1068794   -9843.3403   -11692.489    1849.1482    30.009877    30.009877    30.009877 
  146750    309.52343    487.65002     27066.18     1.105264    -9869.342    -11713.68    1844.3384    30.024491    30.024491    30.024491 
  146800    304.97509    780.35776    27137.305    1.1023671   -9908.1314   -11725.368    1817.2366    30.050768    30.050768    30.050768 
  146850    298.44453   -182.82917    27243.751      1.09806   -9932.6938   -11711.017    1778.3233    30.090008    30.090008    30.090008 
  146900    294.22008   -443.54466    27342.805    1.0940821   -9947.1981   -11700.349    1753.1513    30.126431    30.126431    30.126431 
  146950    300.90718   -750.95024    27405.779     1.091568   -9940.9406   -11733.938    1792.9974    30.149542    30.149542    30.149542 
  147000    297.65843   -862.86439    27430.125    1.0905992   -9938.6646   -11712.304    1773.6392    30.158467    30.158467    30.158467 
  147050    304.30902   -320.41875    27420.604    1.0909779   -9943.6493   -11756.917    1813.2677    30.154977    30.154977    30.154977 
  147100    310.54313   -13.551544    27399.416    1.0918216   -9924.7659    -11775.18    1850.4145    30.147208    30.147208    30.147208 
  147150    304.45779    254.72878    27383.105    1.0924719   -9935.8161    -11749.97    1814.1542    30.141225    30.141225    30.141225 
  147200    288.34869     228.8975    27378.408    1.0926593    -9983.156   -11701.322    1718.1659    30.139501    30.139501    30.139501 
  147250    290.34803   -548.71367    27378.256    1.0926654   -10001.063   -11731.143    1730.0792    30.139446    30.139446    30.139446 
  147300    300.85016   -283.04505    27362.165    1.0933079     -9990.02   -11782.678    1792.6576     30.13354     30.13354     30.13354 
  147350    309.64463   -103.68916    27331.442    1.0945369   -9966.1727   -11811.233    1845.0607    30.122257    30.122257    30.122257 
  147400    305.27461    315.07243    27298.576    1.0958547   -9961.2788     -11780.3    1819.0213    30.110179    30.110179    30.110179 
  147450    290.40115    35.005742    27277.029    1.0967204   -10003.021   -11733.417    1730.3957    30.102254    30.102254    30.102254 
  147500    291.17205    117.38294    27254.531    1.0976257   -10008.164   -11743.153    1734.9892    30.093976    30.093976    30.093976 
  147550    296.91811   -34.479562     27235.08    1.0984096   -10019.112   -11788.339    1769.2279    30.086815    30.086815    30.086815 
  147600    296.16406    214.82936    27221.869    1.0989427   -9984.2359   -11748.971    1764.7348     30.08195     30.08195     30.08195 
  147650    305.44625     569.9168     27225.51    1.0987957   -9925.7316   -11745.776     1820.044    30.083291    30.083291    30.083291 
  147700    296.26356    440.83748    27252.745    1.0976976   -9908.2191   -11673.547    1765.3277    30.093319    30.093319    30.093319 
  147750    296.77627    166.14089    27290.438    1.0961815   -9892.8565   -11661.239    1768.3827    30.107186    30.107186    30.107186 
  147800    304.87127   -338.55204    27325.414    1.0947784   -9882.7229   -11699.341     1816.618    30.120043    30.120043    30.120043 
  147850    297.40159    177.95458    27356.057    1.0935521   -9890.5664   -11662.675    1772.1088    30.131297    30.131297    30.131297 
  147900    309.12979     -297.846     27391.21    1.0921487   -9883.1414   -11725.134    1841.9929    30.144198    30.144198    30.144198 
  147950    297.41091    107.04269    27420.485    1.0909826   -9908.1818   -11680.346    1772.1644    30.154934    30.154934    30.154934 
  148000     298.8412   -222.20647     27446.78    1.0899374   -9946.7263   -11727.413    1780.6869     30.16457     30.16457     30.16457 
  148050     305.4345     -835.698    27464.237    1.0892446   -9990.6622   -11810.636     1819.974    30.170963    30.170963    30.170963 
  148100    290.62772   -35.593092    27460.729    1.0893838   -10006.024    -11737.77    1731.7458    30.169679    30.169679    30.169679 
  148150    301.64129   -824.65459    27441.612    1.0901427   -10009.619   -11806.991    1797.3716    30.162676    30.162676    30.162676 
  148200    293.32707    58.584245    27397.619    1.0918932   -9982.2344   -11730.065    1747.8302    30.146549    30.146549    30.146549 
  148250    303.69119    269.33957    27352.103    1.0937101   -9953.5873   -11763.174    1809.5863    30.129846    30.129846    30.129846 
  148300    309.02592    212.84262    27323.373    1.0948602   -9953.4627   -11794.837     1841.374    30.119293    30.119293    30.119293 
  148350    302.17624    337.72157    27310.431     1.095379   -9959.9375   -11760.497    1800.5592    30.114537    30.114537    30.114537 
  148400     299.0727    112.59338    27308.927    1.0954393   -9980.1256   -11762.192    1782.0663    30.113984    30.113984    30.113984 
  148450     292.7682    237.29056    27312.451     1.095298   -10033.189   -11777.689    1744.5001    30.115279    30.115279    30.115279 
  148500    290.07717      757.899    27325.022    1.0947941   -10057.833   -11786.298    1728.4652    30.119899    30.119899    30.119899 
  148550    298.89548     449.1738    27361.944    1.0933168   -10065.285   -11846.295    1781.0103    30.133459    30.133459    30.133459 
  148600    288.27638    312.13005    27420.394    1.0909863   -10064.865     -11782.6     1717.735      30.1549      30.1549      30.1549 
  148650    298.45753   -121.92639    27482.183    1.0885333   -10041.856   -11820.257    1778.4008    30.177534    30.177534    30.177534 
  148700    301.35402    -201.3811    27534.914    1.0864488   -10008.743   -11804.403    1795.6599    30.196822    30.196822    30.196822 
  148750    296.76853    -101.3651    27583.153    1.0845487   -9995.7639   -11764.101    1768.3366    30.214446    30.214446    30.214446 
  148800    298.89473   -754.19379      27621.2    1.0830548   -9977.8607   -11758.867    1781.0059    30.228332    30.228332    30.228332 
  148850    298.40267    -407.1763    27631.582    1.0826478   -9953.3078   -11731.382    1778.0739    30.232119    30.232119    30.232119 
  148900    301.55675   -59.193013    27621.409    1.0830466   -9943.6993   -11740.567    1796.8679    30.228408    30.228408    30.228408 
  148950    298.72593   -736.49162     27601.19      1.08384   -9951.7812   -11731.781    1780.0001     30.22103     30.22103     30.22103 
  149000    297.23009   -736.59968    27549.993    1.0858541    -9955.536   -11726.623    1771.0869    30.202333    30.202333    30.202333 
  149050    303.49871    -38.70673    27468.538    1.0890741    -9948.338   -11756.777    1808.4393    30.172538    30.172538    30.172538 
  149100     298.2083    701.25324    27384.635    1.0924109   -9955.8188   -11732.734    1776.9157    30.141786    30.141786    30.141786 
  149150     297.6877    457.17311    27327.024    1.0947139   -9952.1893   -11726.003    1773.8136    30.120634    30.120634    30.120634 
  149200    299.89784    -294.6978    27288.652    1.0962532   -9949.4026   -11736.386     1786.983    30.106529    30.106529    30.106529 
  149250    298.11916    305.41225     27250.26    1.0977977   -9955.7325   -11732.117    1776.3845    30.092404    30.092404    30.092404 
  149300    294.40742    499.95757    27226.181    1.0987686   -9946.0671   -11700.335    1754.2676    30.083538    30.083538    30.083538 
  149350    301.91915    1285.6006    27226.727    1.0987466   -9894.9627    -11693.99    1799.0273    30.083739    30.083739    30.083739 
  149400     305.1808    1530.0749    27278.273    1.0966703   -9855.5626   -11674.025    1818.4623    30.102712    30.102712    30.102712 
  149450    304.81676     697.3127    27392.662    1.0920907   -9880.4877   -11696.781    1816.2931    30.144731    30.144731    30.144731 
  149500    300.88702    -1218.162    27536.517    1.0863855   -9885.3353   -11678.213    1792.8772    30.197408    30.197408    30.197408 
  149550     295.0751    -1024.379    27637.151    1.0824297   -9888.3347   -11646.581    1758.2461    30.234149    30.234149    30.234149 
  149600    300.48833   -939.67916    27680.809    1.0807225   -9876.7651   -11667.267    1790.5016    30.250061    30.250061    30.250061 
  149650    302.37351   -415.13015    27680.238    1.0807448   -9870.9819   -11672.717    1801.7347    30.249853    30.249853    30.249853 
  149700    312.87069   -638.69827    27658.844    1.0815807   -9841.1524   -11705.436    1864.2836    30.242058    30.242058    30.242058 
  149750    309.75459     56.48307    27623.774    1.0829539   -9835.5833   -11681.299    1845.7159    30.229271    30.229271    30.229271 
  149800    304.37257    412.45662    27594.186    1.0841151   -9867.8137    -11681.46    1813.6464    30.218474    30.218474    30.218474 
  149850    304.20607   -406.67682    27576.434    1.0848129   -9927.9141   -11740.568    1812.6542    30.211993    30.211993    30.211993 
  149900    297.18493   -242.10775    27545.247    1.0860412   -9948.7162   -11719.534    1770.8178    30.200599    30.200599    30.200599 
  149950    301.71711    220.39274    27507.175    1.0875444   -9967.7377   -11765.561    1797.8234    30.186679    30.186679    30.186679 
SHAKE stats (type/ave/delta) on step 150000
  1 0.957944 0.00185177
  1 104.404 0.114221
  150000    302.85501    55.647431    27480.808    1.0885878   -9975.3549   -11779.959    1804.6038     30.17703     30.17703     30.17703 
  150006    297.67331    144.61415    27478.328    1.0886861   -9975.0288   -11748.757    1773.7279    30.176123    30.176123    30.176123 
Loop time of 343.512 on 28 procs for 100000 steps with 3000 atoms

Performance: 25.152 ns/day, 0.954 hours/ns, 291.110 timesteps/s
100.0% CPU use with 28 MPI tasks x no OpenMP threads

MPI task timing breakdown:
Section |  min time  |  avg time  |  max time  |%varavg| %total
---------------------------------------------------------------
Pair    | 116.6      | 136.45     | 155.95     |  83.5 | 39.72
Bond    | 0.032594   | 0.041563   | 0.056513   |   2.3 |  0.01
Kspace  | 112.39     | 131.94     | 151.77     |  84.9 | 38.41
Neigh   | 4.3754     | 4.3893     | 4.3984     |   0.3 |  1.28
Comm    | 11.897     | 12.106     | 12.278     |   2.7 |  3.52
Output  | 0.14511    | 0.14808    | 0.19916    |   2.6 |  0.04
Modify  | 39.007     | 45.701     | 57.318     |  99.8 | 13.30
Other   |            | 12.74      |            |       |  3.71

Nlocal:    107.143 ave 117 max 95 min
Histogram: 1 1 1 3 4 7 3 5 1 2
Nghost:    3691.29 ave 3723 max 3654 min
Histogram: 1 0 4 3 5 2 5 6 1 1
Neighs:    30931.4 ave 37095 max 27007 min
Histogram: 4 2 3 8 3 2 2 1 2 1

Total # of neighbors = 866078
Ave neighs/atom = 288.693
Ave special neighs/atom = 2
Neighbor list builds = 4353
Dangerous builds = 0

clear
OMP_NUM_THREADS environment is not set. Defaulting to 1 thread. (../comm.cpp:90)
  using 1 OpenMP thread(s) per MPI task












Total wall time: 0:08:32
